.Version 8.11.13 of ABINIT

 ABINIT is a project of the Universite Catholique de Louvain,
 Corning Inc. and other collaborators, see ~abinit/doc/developers/contributors.txt .
 acknowledgments of the ABINIT effort.

.Starting date : Thu 12 Dec 2019.
- ( at 17h35 )

 === Build Information ===
  Version       : 8.11.13
  Build target  : x86_64_linux_intel14.0
  Build date    : 20191206

 === Optimizations ===
  Debug level        : basic
  Optimization level : standard
  Architecture       : intel_xeon

 === Multicore ===
  Parallel build : yes
  Parallel I/O   : yes
  openMP support : no
  GPU support    : no

 === Connectors / Fallbacks ===
  Connectors on : yes
  Fallbacks on  : yes
  FFT flavor    : fftw3
  LINALG flavor : mkl
  TIMER flavor  : abinit
  TRIO flavor   : netcdf

 === Experimental features ===
  Exports             : no
  GW double-precision : yes

 Default optimizations:
   -O3

 Optimizations for 43_ptgroups:
   -O0

 CPP options activated during the build:

                  CC_INTEL                   CXX_GNU                  FC_INTEL

 HAVE_FC_ALLOCATABLE_DT...             HAVE_FC_ASYNC  HAVE_FC_COMMAND_ARGUMENT

        HAVE_FC_CONTIGUOUS           HAVE_FC_CPUTIME             HAVE_FC_ETIME

              HAVE_FC_EXIT             HAVE_FC_FLUSH             HAVE_FC_GAMMA

            HAVE_FC_GETENV            HAVE_FC_GETPID   HAVE_FC_IEEE_ARITHMETIC

   HAVE_FC_IEEE_EXCEPTIONS             HAVE_FC_IOMSG     HAVE_FC_ISO_C_BINDING

  HAVE_FC_ISO_FORTRAN_2008        HAVE_FC_LONG_LINES        HAVE_FC_MOVE_ALLOC

  HAVE_FC_ON_THE_FLY_SHAPE           HAVE_FC_PRIVATE         HAVE_FC_PROTECTED

           HAVE_FC_SHIFTLR         HAVE_FC_STREAM_IO            HAVE_FC_SYSTEM

                  HAVE_FFT            HAVE_FFT_FFTW3              HAVE_FFT_MPI

           HAVE_FFT_SERIAL               HAVE_GW_DPC        HAVE_LIBPAW_ABINIT

         HAVE_LINALG_AXPBY        HAVE_LINALG_GEMM3M  HAVE_LINALG_MKL_IMATCOPY

   HAVE_LINALG_MKL_OMATADD  HAVE_LINALG_MKL_OMATCOPY   HAVE_LINALG_MKL_THREADS

        HAVE_LINALG_SERIAL                  HAVE_MPI                 HAVE_MPI2

       HAVE_MPI_IALLREDUCE        HAVE_MPI_IALLTOALL       HAVE_MPI_IALLTOALLV

           HAVE_MPI_IBCAST         HAVE_MPI_IGATHERV        HAVE_MPI_INTEGER16

               HAVE_MPI_IO HAVE_MPI_TYPE_CREATE_S...               HAVE_NETCDF

           HAVE_NETCDF_MPI                HAVE_NUMPY             HAVE_OS_LINUX

         HAVE_TIMER_ABINIT                  HAVE_XML              USE_MACROAVE

- input  file    -> sp.in
- output file    -> sp.out
- root for input  files -> spi
- root for output files -> spo

-instrng: 56 lines of input have been read from file sp.in

 Please give name of formatted atomic psp file
 For atom type 1, psp file is /CECI/home/ucl/naps/jovbever/.PsP/CTO/Ca.psp8

 Please give name of formatted atomic psp file
 For atom type 2, psp file is /CECI/home/ucl/naps/jovbever/.PsP/CTO/Ti.psp8

 Please give name of formatted atomic psp file
 For atom type 3, psp file is /CECI/home/ucl/naps/jovbever/.PsP/CTO/O.psp8
  read the values zionpsp= 10.0 , pspcod=   8 , lmax=   2
  read the values zionpsp= 12.0 , pspcod=   8 , lmax=   2
  read the values zionpsp=  6.0 , pspcod=   8 , lmax=   2

 inpspheads: deduce mpsang = 3, n1xccc = 2501.

invars1m : enter jdtset= 0

 symlatt: the Bravais lattice is oP (primitive orthorhombic)
  xred   is defined in input file
 ingeo: takes atomic coordinates from input array xred

 symlatt: the Bravais lattice is oP (primitive orthorhombic)

 symlatt: the Bravais lattice is oP (primitive orthorhombic)
 symspgr: spgroup=  62  Pn m a   (=D2h^16)

--- !WARNING
src_file: m_mpinfo.F90
src_line: 2292
message: |
    nkpt*nsppol (8) is not a multiple of nproc_kpt (3)
    The k-point parallelisation is inefficient. (Ignore this warning if this is not a GS run)
...

 For input ecut=  8.000000E+01 best grid ngfft=      45      48      64
       max ecut=  8.178703E+01

 ==== FFT mesh ====
  FFT mesh divisions ........................    45   48   64
  Augmented FFT divisions ...................    45   49   64
  FFT algorithm .............................   312
  FFT cache size ............................    16
 getmpw: optimal value of mpw= 7861

 Symmetries : space group Pn m a (# 62); Bravais oP (primitive ortho.)

 getdim_nloc : deduce lmnmax  =  18, lnmax  =   6,
                      lmnmaxso=  18, lnmaxso=   6.
     intxc =       0    ionmov =       0      iscf =       7    lmnmax =       6
     lnmax =       6     mgfft =      64  mpssoang =       3    mqgrid =    3100
     natom =      20  nloc_mem =       1    nspden =       1   nspinor =       1
    nsppol =       1      nsym =       8    n1xccc =    2501    ntypat =       3
    occopt =       1   xclevel =       1
-    mband =          80        mffmem =           1         mkmem =           3
       mpw =        7861          nfft =      138240          nkpt =           8
  Rough estimation (10% accuracy) of disk space for files :

 The job will continue.
------------- Echo of variables that govern the present computation ------------
-
- outvars: echo of selected default values
-   iomode0 =  0 , fftalg0 =312 , wfoptalg0 =  0
-
- outvars: echo of global parameters not present in the input file
-  max_nthreads =    0
-
 -outvars: echo values of preprocessed input variables --------

 These variables are accessible in NetCDF format (spo_OUT.nc)

            acell      5.4040000000E+00  5.5130000000E+00  7.6970000000E+00 Bohr
              amu      4.00780000E+01  4.78800000E+01  1.59994000E+01
             ecut      8.00000000E+01 Hartree
-          fftalg         312
              kpt      1.25000000E-01  1.25000000E-01  1.25000000E-01
                       3.75000000E-01  1.25000000E-01  1.25000000E-01
                       1.25000000E-01  3.75000000E-01  1.25000000E-01
                       3.75000000E-01  3.75000000E-01  1.25000000E-01
                       1.25000000E-01  1.25000000E-01  3.75000000E-01
                       3.75000000E-01  1.25000000E-01  3.75000000E-01
                       1.25000000E-01  3.75000000E-01  3.75000000E-01
                       3.75000000E-01  3.75000000E-01  3.75000000E-01
         kptrlatt        4    0    0      0    4    0      0    0    4
          kptrlen      2.16160000E+01
P           mkmem           3
            natom          20
            nband          80
            ngfft          45      48      64
             nkpt           8
             nsym           8
           ntypat           3
              occ      2.000000  2.000000  2.000000  2.000000  2.000000  2.000000
                       2.000000  2.000000  2.000000  2.000000  2.000000  2.000000
                       2.000000  2.000000  2.000000  2.000000  2.000000  2.000000
                       2.000000  2.000000  2.000000  2.000000  2.000000  2.000000
                       2.000000  2.000000  2.000000  2.000000  2.000000  2.000000
                       2.000000  2.000000  2.000000  2.000000  2.000000  2.000000
                       2.000000  2.000000  2.000000  2.000000  2.000000  2.000000
                       2.000000  2.000000  2.000000  2.000000  2.000000  2.000000
                       2.000000  2.000000  2.000000  2.000000  2.000000  2.000000
                       2.000000  2.000000  2.000000  2.000000  2.000000  2.000000
                       2.000000  2.000000  2.000000  2.000000  2.000000  2.000000
                       2.000000  2.000000  2.000000  2.000000  2.000000  2.000000
                       2.000000  2.000000  2.000000  2.000000  2.000000  2.000000
                       2.000000  2.000000
           shiftk      5.00000000E-01  5.00000000E-01  5.00000000E-01
          spgroup          62
           symrel      1  0  0   0  1  0   0  0  1      -1  0  0   0 -1  0   0  0 -1
                      -1  0  0   0  1  0   0  0 -1       1  0  0   0 -1  0   0  0  1
                      -1  0  0   0 -1  0   0  0  1       1  0  0   0  1  0   0  0 -1
                       1  0  0   0 -1  0   0  0 -1      -1  0  0   0  1  0   0  0  1
            tnons      0.0000000  0.0000000  0.0000000     0.0000000  0.0000000  0.0000000
                       0.5000000  0.5000000  0.5000000     0.5000000  0.5000000  0.5000000
                       0.0000000  0.0000000  0.5000000     0.0000000  0.0000000  0.5000000
                       0.5000000  0.5000000  0.0000000     0.5000000  0.5000000  0.0000000
           toldfe      1.00000000E-10 Hartree
            typat      1  1  1  1  2  2  2  2  3  3  3  3  3  3  3  3  3  3  3  3
              wtk        0.12500    0.12500    0.12500    0.12500    0.12500    0.12500
                         0.12500    0.12500
           xangst      2.4307225899E-02  2.7866564940E+00  3.0548077309E+00
                       1.4055295917E+00  1.3279795185E+00  3.0548077309E+00
                       1.4541440435E+00  1.5893744325E+00  1.0182692436E+00
                       2.8353664093E+00  1.3069745700E-01  1.0182692436E+00
                       0.0000000000E+00  1.4586769755E+00  0.0000000000E+00
                       0.0000000000E+00  1.4586769755E+00  2.0365384873E+00
                       1.4298368176E+00  0.0000000000E+00  0.0000000000E+00
                       1.4298368176E+00  0.0000000000E+00  2.0365384873E+00
                       2.2334051091E-01  1.3985794841E+00  1.0182692436E+00
                       5.9338227931E-01  6.0710135719E-01  2.2023127201E+00
                       5.9338227931E-01  6.0710135719E-01  3.9073027417E+00
                       8.3645453830E-01  2.0657783327E+00  3.9073027417E+00
                       8.3645453830E-01  2.0657783327E+00  2.2023127201E+00
                       1.2064963067E+00  2.8572564596E+00  1.0182692436E+00
                       1.6531773285E+00  6.0097491390E-02  3.0548077309E+00
                       2.0232190969E+00  8.5157561828E-01  1.8707642544E+00
                       2.0232190969E+00  8.5157561828E-01  1.6577423286E-01
                       2.2662913559E+00  2.3102525938E+00  1.6577423286E-01
                       2.2662913559E+00  2.3102525938E+00  1.8707642544E+00
                       2.6363331243E+00  1.5187744669E+00  3.0548077309E+00
            xcart      4.5934000000E-02  5.2660176000E+00  5.7727500000E+00
                       2.6560660000E+00  2.5095176000E+00  5.7727500000E+00
                       2.7479340000E+00  3.0034824000E+00  1.9242500000E+00
                       5.3580660000E+00  2.4698240000E-01  1.9242500000E+00
                       0.0000000000E+00  2.7565000000E+00  0.0000000000E+00
                       0.0000000000E+00  2.7565000000E+00  3.8485000000E+00
                       2.7020000000E+00  0.0000000000E+00  0.0000000000E+00
                       2.7020000000E+00  0.0000000000E+00  3.8485000000E+00
                       4.2205240000E-01  2.6429322000E+00  1.9242500000E+00
                       1.1213300000E+00  1.1472553000E+00  4.1617679000E+00
                       1.1213300000E+00  1.1472553000E+00  7.3837321000E+00
                       1.5806700000E+00  3.9037553000E+00  7.3837321000E+00
[...]
   0.65074    0.68049    0.70809    0.76186    0.77870    0.80824    0.83120    0.83397
   0.88215    0.89374    0.92401    0.94937    0.97300    1.00781    1.02764    1.04741
   1.11020    1.15180    1.20038    1.23993    1.26736    1.29663    1.32321    1.33995
   1.40142    1.43352    1.46402    1.58388    1.62384    1.65824    1.69203    1.70196
   1.75092    1.76400    1.78279    1.80201    1.84507    1.87665    1.90154    1.94838
   1.95465    1.99632    2.00308    2.07469    2.09738    2.12269    2.14772    2.18383
   2.19518    2.23371    2.24876    2.28881    2.29467    2.31742    2.34143    2.40016
 kpt#   4, nband= 80, wtk=  0.12500, kpt=  0.3750  0.3750  0.1250 (reduced coord)
  -0.78837   -0.76122   -0.71600   -0.69694   -0.34023   -0.31733   -0.22467   -0.19045
  -0.17963   -0.16573    0.02554    0.03744    0.05448    0.06949    0.09863    0.11444
   0.12606    0.16242    0.47475    0.52303    0.60025    0.62724    0.64092    0.67195
   0.68281    0.70778    0.73706    0.75266    0.76202    0.79617    0.81207    0.84018
   0.87419    0.87961    0.90496    0.93704    0.95387    0.99360    1.03667    1.08842
   1.09867    1.10390    1.15024    1.17196    1.17882    1.21291    1.28985    1.34873
   1.38566    1.39642    1.49725    1.53855    1.57422    1.62499    1.68129    1.69227
   1.73374    1.74530    1.78517    1.80575    1.81590    1.84538    1.85002    1.88151
   1.92051    1.94586    1.96166    2.00004    2.08824    2.13293    2.14901    2.16997
   2.29954    2.31262    2.32182    2.34688    2.35329    2.35990    2.39559    2.41230
 kpt#   5, nband= 80, wtk=  0.12500, kpt=  0.1250  0.1250  0.3750 (reduced coord)
  -0.83352   -0.79750   -0.69956   -0.67826   -0.26256   -0.20857   -0.16068   -0.14547
  -0.13774   -0.10114   -0.05556   -0.01562   -0.00283    0.03728    0.04897    0.07554
   0.18615    0.24847    0.38446    0.44987    0.46248    0.48898    0.53825    0.60551
   0.62623    0.63007    0.68986    0.70300    0.72688    0.76904    0.81347    0.84348
   0.86827    0.88549    0.92814    0.96029    0.96298    1.02374    1.04380    1.06031
   1.16495    1.19370    1.25903    1.26934    1.28653    1.30579    1.38881    1.42414
   1.50840    1.52619    1.56605    1.59801    1.62065    1.66098    1.70889    1.74633
   1.75894    1.77559    1.79715    1.85883    1.86932    1.88879    1.89642    1.91505
   1.95039    1.98115    1.99493    2.02645    2.07353    2.10429    2.12296    2.16089
   2.17529    2.20890    2.23604    2.25219    2.27863    2.30180    2.31307    2.35194
 kpt#   6, nband= 80, wtk=  0.12500, kpt=  0.3750  0.1250  0.3750 (reduced coord)
  -0.79513   -0.76271   -0.73809   -0.71202   -0.23975   -0.22438   -0.19214   -0.17572
  -0.11602   -0.10831   -0.07501   -0.06103   -0.03600    0.00695    0.01348    0.04456
   0.30622    0.36952    0.38831    0.47219    0.48885    0.51818    0.55835    0.61511
   0.65664    0.66528    0.72432    0.73793    0.79325    0.80578    0.83167    0.85295
   0.86077    0.87275    0.88835    0.91782    0.97081    0.99111    1.01397    1.04212
   1.17458    1.18567    1.26231    1.27673    1.30088    1.34608    1.38075    1.40961
   1.42265    1.45040    1.49949    1.51087    1.54313    1.58681    1.62718    1.64857
   1.69421    1.73124    1.76447    1.81246    1.85505    1.87997    1.90204    1.90978
   1.97457    1.99044    2.00752    2.09583    2.10701    2.11352    2.14244    2.16910
   2.17730    2.21431    2.23122    2.25053    2.28465    2.30790    2.31680    2.34472
 kpt#   7, nband= 80, wtk=  0.12500, kpt=  0.1250  0.3750  0.3750 (reduced coord)
  -0.79648   -0.76388   -0.74016   -0.71376   -0.23542   -0.22690   -0.18423   -0.16608
  -0.11068   -0.10499   -0.06990   -0.05955   -0.03028    0.00223    0.01305    0.04181
   0.30365    0.36056    0.39292    0.46752    0.47546    0.54225    0.54915    0.61228
   0.64036    0.65577    0.70395    0.73237    0.78604    0.80052    0.82642    0.86090
   0.87546    0.88716    0.91240    0.93269    0.95034    0.99815    1.01223    1.05933
   1.14693    1.19419    1.22500    1.25510    1.30094    1.30896    1.33639    1.34409
   1.39750    1.42840    1.44420    1.45475    1.66019    1.67135    1.68898    1.73539
   1.74418    1.78022    1.78877    1.84020    1.86147    1.86619    1.89346    1.93148
   1.95493    1.99280    2.00583    2.05119    2.09426    2.12049    2.13258    2.17125
   2.18911    2.21566    2.24308    2.26179    2.27937    2.30600    2.36174    2.37535
 kpt#   8, nband= 80, wtk=  0.12500, kpt=  0.3750  0.3750  0.3750 (reduced coord)
  -0.77055   -0.74517   -0.74109   -0.71888   -0.30781   -0.28456   -0.25085   -0.23386
  -0.14776   -0.12085   -0.05012   -0.02799    0.04851    0.07432    0.08441    0.10673
   0.23293    0.27040    0.39080    0.42127    0.56969    0.61361    0.64277    0.66050
   0.68611    0.69606    0.75335    0.77377    0.80735    0.81160    0.81442    0.83571
   0.86780    0.89579    0.90944    0.95684    0.99148    1.02609    1.03770    1.04347
   1.10009    1.12982    1.15015    1.18773    1.24610    1.27423    1.32033    1.35262
   1.36364    1.39240    1.43251    1.46915    1.50886    1.59654    1.60499    1.66451
   1.68787    1.69807    1.77133    1.80054    1.81977    1.82404    1.86218    1.89976
   1.94223    1.99419    2.04034    2.10433    2.13420    2.15813    2.18941    2.20938
   2.26191    2.27238    2.28234    2.30555    2.32276    2.34783    2.38342    2.40968
 Total charge density [el/Bohr^3]
      Maximum=    1.8013E+00  at reduced coord.    0.0000    0.6042    0.9531
 Next maximum=    1.8013E+00  at reduced coord.    0.0000    0.6042    0.5469
      Minimum=    5.0542E-02  at reduced coord.    0.5111    0.5417    0.2500
 Next minimum=    5.0542E-02  at reduced coord.    0.4889    0.4583    0.7500
   Integrated=    1.6000E+02

 Cartesian components of stress tensor (hartree/bohr^3)
  sigma(1 1)= -3.39416143E-01  sigma(3 2)=  0.00000000E+00
  sigma(2 2)= -3.30550183E-01  sigma(3 1)=  0.00000000E+00
  sigma(3 3)= -3.43422661E-01  sigma(2 1)=  0.00000000E+00

-Cartesian components of stress tensor (GPa)         [Pressure=  9.9383E+03 GPa]
- sigma(1 1)= -9.98596602E+03  sigma(3 2)=  0.00000000E+00
- sigma(2 2)= -9.72512052E+03  sigma(3 1)=  0.00000000E+00
- sigma(3 3)= -1.01038418E+04  sigma(2 1)=  0.00000000E+00

== END DATASET(S) ==============================================================

 -outvars: echo values of variables after computation  --------

 These variables are accessible in NetCDF format (spo_OUT.nc)

            acell      5.4040000000E+00  5.5130000000E+00  7.6970000000E+00 Bohr
              amu      4.00780000E+01  4.78800000E+01  1.59994000E+01
             ecut      8.00000000E+01 Hartree
           etotal     -5.3770471083E+02
            fcart     -8.8851160388E-02  6.3378964030E-01  0.0000000000E+00
                       8.8851160388E-02  6.3378964030E-01  0.0000000000E+00
                      -8.8851160388E-02 -6.3378964030E-01  0.0000000000E+00
                       8.8851160388E-02 -6.3378964030E-01  0.0000000000E+00
                      -1.3877787808E-18 -2.7755575616E-18  0.0000000000E+00
                      -1.3877787808E-18 -2.7755575616E-18  0.0000000000E+00
                      -1.3877787808E-18 -2.7755575616E-18  0.0000000000E+00
                      -1.3877787808E-18 -2.7755575616E-18  0.0000000000E+00
                       2.1236878637E-01  2.4271211044E-01  0.0000000000E+00
                      -1.9082642864E-01 -4.0637094426E-02  7.7535791934E-02
                      -1.9082642864E-01 -4.0637094426E-02 -7.7535791934E-02
                       1.9082642864E-01 -4.0637094426E-02 -7.7535791934E-02
                       1.9082642864E-01 -4.0637094426E-02  7.7535791934E-02
                      -2.1236878637E-01  2.4271211044E-01  0.0000000000E+00
                       2.1236878637E-01 -2.4271211044E-01  0.0000000000E+00
                      -1.9082642864E-01  4.0637094426E-02 -7.7535791934E-02
                      -1.9082642864E-01  4.0637094426E-02  7.7535791934E-02
                       1.9082642864E-01  4.0637094426E-02  7.7535791934E-02
                       1.9082642864E-01  4.0637094426E-02 -7.7535791934E-02
                      -2.1236878637E-01 -2.4271211044E-01  0.0000000000E+00
-          fftalg         312
              kpt      1.25000000E-01  1.25000000E-01  1.25000000E-01
                       3.75000000E-01  1.25000000E-01  1.25000000E-01
                       1.25000000E-01  3.75000000E-01  1.25000000E-01
                       3.75000000E-01  3.75000000E-01  1.25000000E-01
                       1.25000000E-01  1.25000000E-01  3.75000000E-01
                       3.75000000E-01  1.25000000E-01  3.75000000E-01
                       1.25000000E-01  3.75000000E-01  3.75000000E-01
                       3.75000000E-01  3.75000000E-01  3.75000000E-01
         kptrlatt        4    0    0      0    4    0      0    0    4
          kptrlen      2.16160000E+01
P           mkmem           3
            natom          20
            nband          80
            ngfft          45      48      64
             nkpt           8
             nsym           8
           ntypat           3
              occ      2.000000  2.000000  2.000000  2.000000  2.000000  2.000000
                       2.000000  2.000000  2.000000  2.000000  2.000000  2.000000
                       2.000000  2.000000  2.000000  2.000000  2.000000  2.000000
                       2.000000  2.000000  2.000000  2.000000  2.000000  2.000000
                       2.000000  2.000000  2.000000  2.000000  2.000000  2.000000
                       2.000000  2.000000  2.000000  2.000000  2.000000  2.000000
                       2.000000  2.000000  2.000000  2.000000  2.000000  2.000000
                       2.000000  2.000000  2.000000  2.000000  2.000000  2.000000
                       2.000000  2.000000  2.000000  2.000000  2.000000  2.000000
                       2.000000  2.000000  2.000000  2.000000  2.000000  2.000000
                       2.000000  2.000000  2.000000  2.000000  2.000000  2.000000
                       2.000000  2.000000  2.000000  2.000000  2.000000  2.000000
                       2.000000  2.000000  2.000000  2.000000  2.000000  2.000000
                       2.000000  2.000000
           shiftk      5.00000000E-01  5.00000000E-01  5.00000000E-01
          spgroup          62
           strten     -3.3941614317E-01 -3.3055018344E-01 -3.4342266138E-01
                       0.0000000000E+00  0.0000000000E+00  0.0000000000E+00
           symrel      1  0  0   0  1  0   0  0  1      -1  0  0   0 -1  0   0  0 -1
                      -1  0  0   0  1  0   0  0 -1       1  0  0   0 -1  0   0  0  1
                      -1  0  0   0 -1  0   0  0  1       1  0  0   0  1  0   0  0 -1
                       1  0  0   0 -1  0   0  0 -1      -1  0  0   0  1  0   0  0  1
            tnons      0.0000000  0.0000000  0.0000000     0.0000000  0.0000000  0.0000000
                       0.5000000  0.5000000  0.5000000     0.5000000  0.5000000  0.5000000
                       0.0000000  0.0000000  0.5000000     0.0000000  0.0000000  0.5000000
                       0.5000000  0.5000000  0.0000000     0.5000000  0.5000000  0.0000000
           toldfe      1.00000000E-10 Hartree
            typat      1  1  1  1  2  2  2  2  3  3  3  3  3  3  3  3  3  3  3  3
              wtk        0.12500    0.12500    0.12500    0.12500    0.12500    0.12500
                         0.12500    0.12500
           xangst      2.4307225899E-02  2.7866564940E+00  3.0548077309E+00
                       1.4055295917E+00  1.3279795185E+00  3.0548077309E+00
                       1.4541440435E+00  1.5893744325E+00  1.0182692436E+00
                       2.8353664093E+00  1.3069745700E-01  1.0182692436E+00
                       0.0000000000E+00  1.4586769755E+00  0.0000000000E+00
                       0.0000000000E+00  1.4586769755E+00  2.0365384873E+00
                       1.4298368176E+00  0.0000000000E+00  0.0000000000E+00
                       1.4298368176E+00  0.0000000000E+00  2.0365384873E+00
                       2.2334051091E-01  1.3985794841E+00  1.0182692436E+00
                       5.9338227931E-01  6.0710135719E-01  2.2023127201E+00
                       5.9338227931E-01  6.0710135719E-01  3.9073027417E+00
                       8.3645453830E-01  2.0657783327E+00  3.9073027417E+00
                       8.3645453830E-01  2.0657783327E+00  2.2023127201E+00
                       1.2064963067E+00  2.8572564596E+00  1.0182692436E+00
                       1.6531773285E+00  6.0097491390E-02  3.0548077309E+00
                       2.0232190969E+00  8.5157561828E-01  1.8707642544E+00
                       2.0232190969E+00  8.5157561828E-01  1.6577423286E-01
                       2.2662913559E+00  2.3102525938E+00  1.6577423286E-01
                       2.2662913559E+00  2.3102525938E+00  1.8707642544E+00
                       2.6363331243E+00  1.5187744669E+00  3.0548077309E+00
            xcart      4.5934000000E-02  5.2660176000E+00  5.7727500000E+00
                       2.6560660000E+00  2.5095176000E+00  5.7727500000E+00
                       2.7479340000E+00  3.0034824000E+00  1.9242500000E+00
                       5.3580660000E+00  2.4698240000E-01  1.9242500000E+00
                       0.0000000000E+00  2.7565000000E+00  0.0000000000E+00
                       0.0000000000E+00  2.7565000000E+00  3.8485000000E+00
                       2.7020000000E+00  0.0000000000E+00  0.0000000000E+00
                       2.7020000000E+00  0.0000000000E+00  3.8485000000E+00
                       4.2205240000E-01  2.6429322000E+00  1.9242500000E+00
                       1.1213300000E+00  1.1472553000E+00  4.1617679000E+00
                       1.1213300000E+00  1.1472553000E+00  7.3837321000E+00
                       1.5806700000E+00  3.9037553000E+00  7.3837321000E+00
                       1.5806700000E+00  3.9037553000E+00  4.1617679000E+00
                       2.2799476000E+00  5.3994322000E+00  1.9242500000E+00
                       3.1240524000E+00  1.1356780000E-01  5.7727500000E+00
                       3.8233300000E+00  1.6092447000E+00  3.5352321000E+00
                       3.8233300000E+00  1.6092447000E+00  3.1326790000E-01
                       4.2826700000E+00  4.3657447000E+00  3.1326790000E-01
                       4.2826700000E+00  4.3657447000E+00  3.5352321000E+00
                       4.9819476000E+00  2.8700678000E+00  5.7727500000E+00
             xred      8.5000000000E-03  9.5520000000E-01  7.5000000000E-01
                       4.9150000000E-01  4.5520000000E-01  7.5000000000E-01
                       5.0850000000E-01  5.4480000000E-01  2.5000000000E-01
                       9.9150000000E-01  4.4800000000E-02  2.5000000000E-01
                       0.0000000000E+00  5.0000000000E-01  0.0000000000E+00
                       0.0000000000E+00  5.0000000000E-01  5.0000000000E-01
                       5.0000000000E-01  0.0000000000E+00  0.0000000000E+00
                       5.0000000000E-01  0.0000000000E+00  5.0000000000E-01
                       7.8100000000E-02  4.7940000000E-01  2.5000000000E-01
                       2.0750000000E-01  2.0810000000E-01  5.4070000000E-01
                       2.0750000000E-01  2.0810000000E-01  9.5930000000E-01
                       2.9250000000E-01  7.0810000000E-01  9.5930000000E-01
                       2.9250000000E-01  7.0810000000E-01  5.4070000000E-01
                       4.2190000000E-01  9.7940000000E-01  2.5000000000E-01
                       5.7810000000E-01  2.0600000000E-02  7.5000000000E-01
                       7.0750000000E-01  2.9190000000E-01  4.5930000000E-01
                       7.0750000000E-01  2.9190000000E-01  4.0700000000E-02
                       7.9250000000E-01  7.9190000000E-01  4.0700000000E-02
                       7.9250000000E-01  7.9190000000E-01  4.5930000000E-01
                       9.2190000000E-01  5.2060000000E-01  7.5000000000E-01
            znucl       20.00000   22.00000    8.00000

 Suggested references for the acknowledgment of ABINIT usage.

 Calculation completed.
.Delivered   1 WARNINGs and   0 COMMENTs to log file.

--- !FinalSummary
program: abinit
version: 8.11.13
start_datetime: Thu Dec 12 17:35:57 2019
end_datetime: Thu Dec 12 17:48:41 2019
overall_cpu_time:        2181.1
overall_wall_time:        2292.4
exit_requested_by_user: no
timelimit: 0
pseudos:
    Ca  : 465a3a044f2c7a72aff2b3fb3f797e8d
    Ti  : ea4ed3d71d7ed9998c7c8ddd5e23a4a6
    O   : abbcf0645b4a6d69360cd16bcad3e730
usepaw: 0
mpi_procs: 3
omp_threads: 1
num_warnings: 1
num_comments: 0
...