.Version 8.11.13 of ABINIT

 ABINIT is a project of the Universite Catholique de Louvain,
 Corning Inc. and other collaborators, see ~abinit/doc/developers/contributors.txt .
 acknowledgments of the ABINIT effort.

.Starting date : Fri 10 Jan 2020.
- ( at 12h57 )

- input  file    -> opt.in
- output file    -> opt.out
- root for input  files -> opti
- root for output files -> opto

 Symmetries : space group Im m a (# 74); Bravais oI (body-center ortho.)
     intxc =       0    ionmov =       2      iscf =       7    lmnmax =       6
     lnmax =       6     mgfft =      24  mpssoang =       3    mqgrid =    3001
     natom =       2  nloc_mem =       1    nspden =       1   nspinor =       1
    nsppol =       1      nsym =       8    n1xccc =    2501    ntypat =       1
    occopt =       1   xclevel =       2
-    mband =           6        mffmem =           1         mkmem =          42
       mpw =         467          nfft =       13824          nkpt =         126
  Rough estimation (10% accuracy) of disk space for files :

------------- Echo of variables that govern the present computation ------------
-
- outvars: echo of selected default values
-   iomode0 =  0 , fftalg0 =312 , wfoptalg0 =  0
-
- outvars: echo of global parameters not present in the input file
-  max_nthreads =    0
-
 -outvars: echo values of preprocessed input variables --------
            acell      1.1338356797E+01  1.1338356797E+01  1.1338356797E+01 Bohr
              amu      2.80855000E+01
          dilatmx      1.05000000E+00
             ecut      8.00000000E+00 Hartree
           ecutsm      5.00000000E-01 Hartree
-          fftalg         312
           ionmov           2
              ixc          11
              kpt     -8.33333333E-02 -1.66666667E-01  0.00000000E+00
                      -1.66666667E-01 -8.33333333E-02  0.00000000E+00
                      -8.33333333E-02 -3.33333333E-01  0.00000000E+00
                      -1.66666667E-01 -2.50000000E-01  0.00000000E+00
                      -8.33333333E-02 -2.50000000E-01  8.33333333E-02
                      -2.50000000E-01 -1.66666667E-01  0.00000000E+00
                      -8.33333333E-02 -1.66666667E-01  1.66666667E-01
                      -3.33333333E-01 -8.33333333E-02  0.00000000E+00
                      -2.50000000E-01 -8.33333333E-02  8.33333333E-02
                      -8.33333333E-02  5.00000000E-01  0.00000000E+00
                      -1.66666667E-01 -4.16666667E-01  0.00000000E+00
                      -8.33333333E-02 -4.16666667E-01  8.33333333E-02
                      -2.50000000E-01 -3.33333333E-01  0.00000000E+00
                      -1.66666667E-01 -3.33333333E-01  8.33333333E-02
                      -8.33333333E-02 -3.33333333E-01  1.66666667E-01
                      -3.33333333E-01 -2.50000000E-01  0.00000000E+00
                      -1.66666667E-01 -2.50000000E-01  1.66666667E-01
                      -8.33333333E-02 -2.50000000E-01  2.50000000E-01
                      -4.16666667E-01 -1.66666667E-01  0.00000000E+00
                      -3.33333333E-01 -1.66666667E-01  8.33333333E-02
                      -8.33333333E-02 -1.66666667E-01  3.33333333E-01
                       5.00000000E-01 -8.33333333E-02  0.00000000E+00
                      -4.16666667E-01 -8.33333333E-02  8.33333333E-02
                      -3.33333333E-01 -8.33333333E-02  1.66666667E-01
                      -8.33333333E-02  3.33333333E-01  0.00000000E+00
                      -1.66666667E-01  4.16666667E-01  0.00000000E+00
                      -2.50000000E-01  5.00000000E-01  0.00000000E+00
                      -1.66666667E-01  5.00000000E-01  8.33333333E-02
                      -3.33333333E-01 -4.16666667E-01  0.00000000E+00
                      -2.50000000E-01 -4.16666667E-01  8.33333333E-02
                      -1.66666667E-01 -4.16666667E-01  1.66666667E-01
                      -8.33333333E-02 -4.16666667E-01  2.50000000E-01
                      -4.16666667E-01 -3.33333333E-01  0.00000000E+00
                      -2.50000000E-01 -3.33333333E-01  1.66666667E-01
                      -1.66666667E-01 -3.33333333E-01  2.50000000E-01
                      -8.33333333E-02 -3.33333333E-01  3.33333333E-01
                       5.00000000E-01 -2.50000000E-01  0.00000000E+00
                      -4.16666667E-01 -2.50000000E-01  8.33333333E-02
                      -1.66666667E-01 -2.50000000E-01  3.33333333E-01
                       4.16666667E-01 -1.66666667E-01  0.00000000E+00
                       5.00000000E-01 -1.66666667E-01  8.33333333E-02
                      -4.16666667E-01 -1.66666667E-01  1.66666667E-01
                       3.33333333E-01 -8.33333333E-02  0.00000000E+00
                       4.16666667E-01 -8.33333333E-02  8.33333333E-02
                       5.00000000E-01 -8.33333333E-02  1.66666667E-01
                      -4.16666667E-01 -8.33333333E-02  2.50000000E-01
                      -8.33333333E-02  1.66666667E-01  0.00000000E+00
                      -1.66666667E-01  2.50000000E-01  0.00000000E+00
                      -2.50000000E-01  3.33333333E-01  0.00000000E+00
                      -3.33333333E-01  4.16666667E-01  0.00000000E+00
                       outvar_i_n : Printing only first  50 k-points.
         kptrlatt        6   -6    6     -6    6    6     -6   -6    6
          kptrlen      6.80301408E+01
P           mkmem          42
            natom           2
            nband           6
            ngfft          24      24      24
             nkpt         126
             nsym           8
            ntime          15
           ntypat           1
              occ      2.000000  2.000000  2.000000  2.000000  0.000000  0.000000
          optcell           2
            rprim      5.0000000000E-01  5.0000000000E-01  0.0000000000E+00
                       0.0000000000E+00  5.0000000000E-01  5.0000000000E-01
                       5.0000000000E-01  0.0000000000E+00  5.0000000000E-01
           shiftk      5.00000000E-01  5.00000000E-01  5.00000000E-01
          spgroup          74
           symrel      1  0  0   0  1  0   0  0  1      -1  0  0   0 -1  0   0  0 -1
                       0 -1  1   0 -1  0   1 -1  0       0  1 -1   0  1  0  -1  1  0
                       0  0  1   0  1  0   1  0  0       0  0 -1   0 -1  0  -1  0  0
                       1 -1  0   0 -1  0   0 -1  1      -1  1  0   0  1  0   0  1 -1
            tnons      0.0000000  0.0000000  0.0000000     0.2400000  0.2600000  0.2400000
                       0.0000000  0.0000000  0.0000000     0.2400000  0.2600000  0.2400000
                       0.0000000  0.0000000  0.0000000     0.2400000  0.2600000  0.2400000
                       0.0000000  0.0000000  0.0000000     0.2400000  0.2600000  0.2400000
           tolmxf      1.00000000E-08
           tolvrs      1.00000000E-10
            typat      1  1
              wtk        0.00926    0.00926    0.00926    0.00926    0.00926    0.00926
                         0.00926    0.00926    0.00926    0.00926    0.00926    0.00926
                         0.00926    0.00926    0.00926    0.00926    0.00926    0.00926
                         0.00926    0.00926    0.00926    0.00926    0.00926    0.00926
                         0.00926    0.00926    0.00926    0.00926    0.00926    0.00926
                         0.00926    0.00926    0.00926    0.00926    0.00926    0.00926
                         0.00926    0.00926    0.00926    0.00926    0.00926    0.00926
                         0.00926    0.00926    0.00926    0.00926    0.00926    0.00926
                         0.00926    0.00926
                       outvars : Printing only first  50 k-points.
           xangst      0.0000000000E+00  0.0000000000E+00  0.0000000000E+00
                       1.4400000000E+00  1.5000000000E+00  1.5000000000E+00
            xcart      0.0000000000E+00  0.0000000000E+00  0.0000000000E+00
                       2.7212056314E+00  2.8345891993E+00  2.8345891993E+00
             xred      0.0000000000E+00  0.0000000000E+00  0.0000000000E+00
                       2.4000000000E-01  2.6000000000E-01  2.4000000000E-01
            znucl       14.00000

 chkinp: Checking input parameters for consistency.

 chkinp: WARNING -
   Chksymbreak=1 . Found potentially symmetry-breaking value of tnons,
   which is neither a rational fraction in 1/8th nor in 1/12th :
   for the symmetry number    2
   symrel is  -1  0  0  0 -1  0  0  0 -1
   tnons is     2.400000E-01    2.600000E-01    2.400000E-01
   Please, read the description of the input variable chksymbreak,
   then, if you feel confident, you might switch it to zero, or consult with the forum.

[...]

 chkinp: WARNING -
   Chksymbreak=1 . Found potentially symmetry-breaking value of tnons,
   which is neither a rational fraction in 1/8th nor in 1/12th :
   for the symmetry number    8
   symrel is  -1  1  0  0  1  0  0  1 -1
   tnons is     2.400000E-01    2.600000E-01    2.400000E-01
   Please, read the description of the input variable chksymbreak,
   then, if you feel confident, you might switch it to zero, or consult with the forum.

== DATASET  1 ==================================================================
-   nproc =    3

 Real(R)+Recip(G) space primitive vectors, cartesian coordinates (Bohr,Bohr^-1):
 R(1)=  5.6691784  5.6691784  0.0000000  G(1)=  0.0881962  0.0881962 -0.0881962
 R(2)=  0.0000000  5.6691784  5.6691784  G(2)= -0.0881962  0.0881962  0.0881962
 R(3)=  5.6691784  0.0000000  5.6691784  G(3)=  0.0881962 -0.0881962  0.0881962
 Unit cell volume ucvol=  3.6441007E+02 bohr^3
 Angles (23,13,12)=  6.00000000E+01  6.00000000E+01  6.00000000E+01 degrees

 getcut: wavevector=  0.0000  0.0000  0.0000  ngfft=  24  24  24
         ecut(hartree)=      8.820   => boxcut(ratio)=   2.23912

 getcut : COMMENT -
  Note that boxcut > 2.2 ; recall that boxcut=Gcut(box)/Gcut(sphere) = 2
  is sufficient for exact treatment of convolution.
  Such a large boxcut is a waste : you could raise ecut
  e.g. ecut=   11.055083 Hartrees makes boxcut=2

--- Pseudopotential description ------------------------------------------------
- pspini: atom type   1  psp file is /CECI/home/ucl/naps/jovbever/.PsP/Si/Si.psp8
- pspatm: opening atomic psp file    /CECI/home/ucl/naps/jovbever/.PsP/Si/Si.psp8
- Si    ONCVPSP-3.2.3.1  r_core=   1.60303   1.72197   1.91712
- 14.00000   4.00000    170510                znucl, zion, pspdat
    8   11    2    4       600   0.00000      pspcod,pspxc,lmax,lloc,mmax,r2well
    5.99000000000000    4.00000000000000    0.00000000000000   rchrg,fchrg,qchrg
     nproj     2     2     2
     extension_switch     1
  pspatm : epsatm=    9.34321699
         --- l  ekb(1:nproj) -->
             0    5.168965    0.829883
             1    2.571282    0.578307
             2   -2.427311   -0.488097
 pspatm: atomic psp has been read  and splines computed

   1.49491472E+02                                ecore*ucvol(ha*bohr**3)

_setup2: Arith. and geom. avg. npw (full set) are     455.907     455.889

=== [ionmov= 2] Broyden-Fletcher-Goldfard-Shanno method (forces)

--- Iteration: ( 1/15) Internal Cycle: (1/1)

---SELF-CONSISTENT-FIELD CONVERGENCE--------------------------------------------

     iter   Etot(hartree)      deltaE(h)  residm     vres2
 ETOT  1  -8.4302575788811    -8.430E+00 1.672E-02 8.581E-01
 ETOT  2  -8.4318913504767    -1.634E-03 1.444E-03 2.827E-02
 ETOT  3  -8.4319023081509    -1.096E-05 4.734E-04 9.413E-04
 ETOT  4  -8.4319024155106    -1.074E-07 5.425E-04 9.547E-05
 ETOT  5  -8.4319024354636    -1.995E-08 1.085E-04 2.375E-06
 ETOT  6  -8.4319024361916    -7.281E-10 1.508E-04 4.975E-08
 ETOT  7  -8.4319024362029    -1.128E-11 6.981E-05 4.572E-10
 ETOT  8  -8.4319024362030    -9.237E-14 4.503E-05 2.226E-12

 At SCF step    8       vres2   =  2.23E-12 < tolvrs=  1.00E-10 =>converged.

 Cartesian components of stress tensor (hartree/bohr^3)
  sigma(1 1)=  4.43170585E-04  sigma(3 2)= -3.84395333E-06
  sigma(2 2)=  4.41780114E-04  sigma(3 1)=  0.00000000E+00
  sigma(3 3)=  4.41780114E-04  sigma(2 1)=  0.00000000E+00

 Integrated electronic density in atomic spheres:
 Atom  Sphere_radius  Integrated_density
    1        2.00000          1.56852066
    2        2.00000          1.59813260

---OUTPUT-----------------------------------------------------------------------

 Cartesian coordinates (xcart) [bohr]
  0.00000000000000E+00  0.00000000000000E+00  0.00000000000000E+00
  2.72120563135533E+00  2.83458919932846E+00  2.83458919932846E+00
 Reduced coordinates (xred)
  0.00000000000000E+00  0.00000000000000E+00  0.00000000000000E+00
  2.40000000000000E-01  2.60000000000000E-01  2.40000000000000E-01
 Cartesian forces (fcart) [Ha/bohr]; max,rms= 8.60618E-03 4.96878E-03 (free atoms)
 -8.60618260991509E-03  1.30104260698261E-18 -1.30104260698261E-18
  8.60618260991509E-03 -1.30104260698261E-18  1.30104260698261E-18
 Reduced forces (fred)
  4.87899845470275E-02  0.00000000000000E+00  4.87899845470275E-02
 -4.87899845470275E-02  0.00000000000000E+00 -4.87899845470275E-02
 Scale of Primitive Cell (acell) [bohr]
  1.13383567973139E+01  1.13383567973139E+01  1.13383567973139E+01
 Real space primitive translations (rprimd) [bohr]
  5.66917839865693E+00  5.66917839865693E+00  0.00000000000000E+00
  0.00000000000000E+00  5.66917839865693E+00  5.66917839865693E+00
  5.66917839865693E+00  0.00000000000000E+00  5.66917839865693E+00
 Unitary Cell Volume (ucvol) [Bohr^3]=  3.64410067486860E+02
 Angles (23,13,12)= [degrees]
  6.00000000000000E+01  6.00000000000000E+01  6.00000000000000E+01
 Lengths [Bohr]
  8.01742897889321E+00  8.01742897889321E+00  8.01742897889321E+00
 Stress tensor in cartesian coordinates (strten) [Ha/bohr^3]
  4.43170585302333E-04  0.00000000000000E+00  0.00000000000000E+00
  0.00000000000000E+00  4.41780113685530E-04 -3.84395332704503E-06
  0.00000000000000E+00 -3.84395332704503E-06  4.41780113685530E-04
 Total energy (etotal) [Ha]= -8.43190243620301E+00

[...]

 Difference of energy with previous step (new-old):
           Absolute (Ha)=-6.30906E-03
           Relative     =-7.47957E-04

[...]

--- Iteration: ( 9/15) Internal Cycle: (1/1)

[...]

--- Iteration: (10/15) Internal Cycle: (1/1)

[...]

--- Iteration: (15/15) Internal Cycle: (1/1)

---SELF-CONSISTENT-FIELD CONVERGENCE--------------------------------------------

     iter   Etot(hartree)      deltaE(h)  residm     vres2
 ETOT  1  -8.4581519188727    -8.458E+00 5.597E-09 8.429E-08
 ETOT  2  -8.4581519189098    -3.708E-11 3.987E-09 8.544E-10
 ETOT  3  -8.4581519189101    -2.878E-13 2.372E-09 6.094E-11

 At SCF step    3       vres2   =  6.09E-11 < tolvrs=  1.00E-10 =>converged.

[...]

 Integrated electronic density in atomic spheres:
 Atom  Sphere_radius  Integrated_density
    1        2.00000          1.75141401
    2        2.00000          1.75141427

---OUTPUT-----------------------------------------------------------------------

 Cartesian coordinates (xcart) [bohr]
 -5.16614830450341E-02  1.08380631693156E-16  9.02056207507940E-17
  2.53167340893038E+00  2.58334344348433E+00  2.58334344348433E+00
 Reduced coordinates (xred)
 -4.99947431760107E-03  4.99947431760109E-03 -4.99947431760107E-03
  2.44999474317601E-01  2.55000525682398E-01  2.44999474317601E-01
 Cartesian forces (fcart) [Ha/bohr]; max,rms= 2.36329E-06 1.36445E-06 (free atoms)
 -2.36329386366281E-06  0.00000000000000E+00  0.00000000000000E+00
  2.36329386366281E-06  0.00000000000000E+00  0.00000000000000E+00
 Reduced forces (fred)
  1.22104103463655E-05  0.00000000000000E+00  1.22104103463655E-05
 -1.22104103463655E-05  0.00000000000000E+00 -1.22104103463655E-05
 Scale of Primitive Cell (acell) [bohr]
  7.30681101833568E+00  7.30679866808632E+00  7.30681101833568E+00
 Real space primitive translations (rprimd) [bohr]
  5.16669151226115E+00  5.16669972754712E+00 -1.28405784521827E-05
  0.00000000000000E+00  5.16668688696867E+00  5.16668688696867E+00
  5.16669151226115E+00 -1.28405784521370E-05  5.16669972754712E+00
 Unitary Cell Volume (ucvol) [Bohr^3]=  2.75847449265189E+02
 Angles (23,13,12)= [degrees]
  6.00000559126060E+01  6.00002170217416E+01  6.00000559126060E+01
 Lengths [Bohr]
  7.30681101833568E+00  7.30679866808632E+00  7.30681101833568E+00
 Stress tensor in cartesian coordinates (strten) [Ha/bohr^3]
 -5.19949519247123E-09  0.00000000000000E+00  0.00000000000000E+00
  0.00000000000000E+00  2.39420970028770E-11 -2.49624326250763E-08
  0.00000000000000E+00 -2.49624326250763E-08  2.39420970028770E-11
 Total energy (etotal) [Ha]= -8.45815191891011E+00

 Difference of energy with previous step (new-old):
           Absolute (Ha)=-2.25459E-10
           Relative     =-2.66558E-11

 fconv : WARNING -
  ntime=   15 was not enough Broyd/MD steps to converge gradients:
  max grad (force/stress) = 2.4962E-06 > tolmxf= 1.0000E-08 ha/bohr (free atoms)

 ----iterations are completed or convergence reached----

 Mean square residual over all n,k,spin=   42.461E-13; max=  23.723E-10
 reduced coordinates (array xred) for    2 atoms
      -0.004999474318      0.004999474318     -0.004999474318
       0.244999474318      0.255000525682      0.244999474318
 rms dE/dt=  9.9698E-06; max dE/dt=  1.2210E-05; dE/dt below (all hartree)
    1       0.000012210410      0.000000000000      0.000012210410
    2      -0.000012210410      0.000000000000     -0.000012210410

 cartesian coordinates (angstrom) at end:
    1     -0.02733807938939     0.00000000000000     0.00000000000000
    2      1.33970386759931     1.36704647225232     1.36704647225232

 cartesian forces (hartree/bohr) at end:
    1     -0.00000236329386     0.00000000000000     0.00000000000000
    2      0.00000236329386     0.00000000000000     0.00000000000000
 frms,max,avg= 1.3644483E-06 2.3632939E-06   0.000E+00  0.000E+00  0.000E+00 h/b

 cartesian forces (eV/Angstrom) at end:
    1     -0.00012152544640     0.00000000000000     0.00000000000000
    2      0.00012152544640     0.00000000000000     0.00000000000000
 frms,max,avg= 7.0162749E-05 1.2152545E-04   0.000E+00  0.000E+00  0.000E+00 e/A
 length scales=  7.306811018336  7.306798668086  7.306811018336 bohr
              =  3.866597858378  3.866591322907  3.866597858378 angstroms
 prteigrs : about to open file opto_EIG
 Fermi (or HOMO) energy (hartree) =   0.14850   Average Vxc (hartree)=  -0.33858
 Eigenvalues (hartree) for nkpt= 126  k points:
 kpt#   1, nband=  6, wtk=  0.00926, kpt= -0.0833 -0.1667  0.0000 (reduced coord)
  -0.26886    0.08301    0.12496    0.13165    0.23872    0.27013
 prteigrs : prtvol=0 or 1, do not print more k-points.

 Components of total free energy (in Hartree) :

    Kinetic energy  =  3.03416919802513E+00
    Hartree energy  =  5.55073727739155E-01
    XC energy       = -3.07953091426341E+00
    Ewald energy    = -8.34079963336705E+00
    PspCore energy  =  5.41935306025569E-01
    Loc. psp. energy= -2.31891622452957E+00
    NL   psp  energy=  1.14991662146005E+00
    >>>>>>>>> Etotal= -8.45815191891011E+00

 Other information on the energy :
    Total energy(eV)= -2.30158018611659E+02 ; Band energy (Ha)=  -2.4333165462E-01

 rms coord change=  4.9995E-03   atom, delta coord (reduced):
     1       -0.004999474318      0.004999474318     -0.004999474318
     2        0.004999474318     -0.004999474318      0.004999474318

 Cartesian components of stress tensor (hartree/bohr^3)
  sigma(1 1)= -5.19949519E-09  sigma(3 2)= -2.49624326E-08
  sigma(2 2)=  2.39420970E-11  sigma(3 1)=  0.00000000E+00
  sigma(3 3)=  2.39420970E-11  sigma(2 1)=  0.00000000E+00

-Cartesian components of stress tensor (GPa)         [Pressure=  5.0522E-05 GPa]
- sigma(1 1)= -1.52974404E-04  sigma(3 2)= -7.34420000E-04
- sigma(2 2)=  7.04400695E-07  sigma(3 1)=  0.00000000E+00
- sigma(3 3)=  7.04400695E-07  sigma(2 1)=  0.00000000E+00

== END DATASET(S) ==============================================================

 -outvars: echo values of variables after computation  --------
            acell      7.3068110183E+00  7.3067986681E+00  7.3068110183E+00 Bohr
              amu      2.80855000E+01
          dilatmx      1.05000000E+00
             ecut      8.00000000E+00 Hartree
           ecutsm      5.00000000E-01 Hartree
           etotal     -8.4581519189E+00
            fcart     -2.3632938637E-06  0.0000000000E+00  0.0000000000E+00
                       2.3632938637E-06  0.0000000000E+00  0.0000000000E+00
-          fftalg         312
           ionmov           2
              ixc          11
              kpt     -8.33333333E-02 -1.66666667E-01  0.00000000E+00
                      -1.66666667E-01 -8.33333333E-02  0.00000000E+00
                      -8.33333333E-02 -3.33333333E-01  0.00000000E+00
                      -1.66666667E-01 -2.50000000E-01  0.00000000E+00
                      -8.33333333E-02 -2.50000000E-01  8.33333333E-02
                      -2.50000000E-01 -1.66666667E-01  0.00000000E+00
                      -8.33333333E-02 -1.66666667E-01  1.66666667E-01
                      -3.33333333E-01 -8.33333333E-02  0.00000000E+00
                      -2.50000000E-01 -8.33333333E-02  8.33333333E-02
                      -8.33333333E-02  5.00000000E-01  0.00000000E+00
                      -1.66666667E-01 -4.16666667E-01  0.00000000E+00
                      -8.33333333E-02 -4.16666667E-01  8.33333333E-02
                      -2.50000000E-01 -3.33333333E-01  0.00000000E+00
                      -1.66666667E-01 -3.33333333E-01  8.33333333E-02
                      -8.33333333E-02 -3.33333333E-01  1.66666667E-01
                      -3.33333333E-01 -2.50000000E-01  0.00000000E+00
                      -1.66666667E-01 -2.50000000E-01  1.66666667E-01
                      -8.33333333E-02 -2.50000000E-01  2.50000000E-01
                      -4.16666667E-01 -1.66666667E-01  0.00000000E+00
                      -3.33333333E-01 -1.66666667E-01  8.33333333E-02
                      -8.33333333E-02 -1.66666667E-01  3.33333333E-01
                       5.00000000E-01 -8.33333333E-02  0.00000000E+00
                      -4.16666667E-01 -8.33333333E-02  8.33333333E-02
                      -3.33333333E-01 -8.33333333E-02  1.66666667E-01
                      -8.33333333E-02  3.33333333E-01  0.00000000E+00
                      -1.66666667E-01  4.16666667E-01  0.00000000E+00
                      -2.50000000E-01  5.00000000E-01  0.00000000E+00
                      -1.66666667E-01  5.00000000E-01  8.33333333E-02
                      -3.33333333E-01 -4.16666667E-01  0.00000000E+00
                      -2.50000000E-01 -4.16666667E-01  8.33333333E-02
                      -1.66666667E-01 -4.16666667E-01  1.66666667E-01
                      -8.33333333E-02 -4.16666667E-01  2.50000000E-01
                      -4.16666667E-01 -3.33333333E-01  0.00000000E+00
                      -2.50000000E-01 -3.33333333E-01  1.66666667E-01
                      -1.66666667E-01 -3.33333333E-01  2.50000000E-01
                      -8.33333333E-02 -3.33333333E-01  3.33333333E-01
                       5.00000000E-01 -2.50000000E-01  0.00000000E+00
                      -4.16666667E-01 -2.50000000E-01  8.33333333E-02
                      -1.66666667E-01 -2.50000000E-01  3.33333333E-01
                       4.16666667E-01 -1.66666667E-01  0.00000000E+00
                       5.00000000E-01 -1.66666667E-01  8.33333333E-02
                      -4.16666667E-01 -1.66666667E-01  1.66666667E-01
                       3.33333333E-01 -8.33333333E-02  0.00000000E+00
                       4.16666667E-01 -8.33333333E-02  8.33333333E-02
                       5.00000000E-01 -8.33333333E-02  1.66666667E-01
                      -4.16666667E-01 -8.33333333E-02  2.50000000E-01
                      -8.33333333E-02  1.66666667E-01  0.00000000E+00
                      -1.66666667E-01  2.50000000E-01  0.00000000E+00
                      -2.50000000E-01  3.33333333E-01  0.00000000E+00
                      -3.33333333E-01  4.16666667E-01  0.00000000E+00
                       outvar_i_n : Printing only first  50 k-points.
         kptrlatt        6   -6    6     -6    6    6     -6   -6    6
          kptrlen      6.80301408E+01
P           mkmem          42
            natom           2
            nband           6
            ngfft          24      24      24
             nkpt         126
             nsym           8
            ntime          15
           ntypat           1
              occ      2.000000  2.000000  2.000000  2.000000  0.000000  0.000000
          optcell           2
            rprim      7.0710621902E-01  7.0710734335E-01 -1.7573437194E-06
                       0.0000000000E+00  7.0710678119E-01  7.0710678119E-01
                       7.0710621902E-01 -1.7573437194E-06  7.0710734335E-01
           shiftk      5.00000000E-01  5.00000000E-01  5.00000000E-01
          spgroup          74
           strten     -5.1994951925E-09  2.3942097003E-11  2.3942097003E-11
                      -2.4962432625E-08  0.0000000000E+00  0.0000000000E+00
           symrel      1  0  0   0  1  0   0  0  1      -1  0  0   0 -1  0   0  0 -1
                       0 -1  1   0 -1  0   1 -1  0       0  1 -1   0  1  0  -1  1  0
                       0  0  1   0  1  0   1  0  0       0  0 -1   0 -1  0  -1  0  0
                       1 -1  0   0 -1  0   0 -1  1      -1  1  0   0  1  0   0  1 -1
            tnons      0.0000000  0.0000000  0.0000000     0.2400000  0.2600000  0.2400000
                       0.0000000  0.0000000  0.0000000     0.2400000  0.2600000  0.2400000
                       0.0000000  0.0000000  0.0000000     0.2400000  0.2600000  0.2400000
                       0.0000000  0.0000000  0.0000000     0.2400000  0.2600000  0.2400000
           tolmxf      1.00000000E-08
           tolvrs      1.00000000E-10
            typat      1  1
              wtk        0.00926    0.00926    0.00926    0.00926    0.00926    0.00926
                         0.00926    0.00926    0.00926    0.00926    0.00926    0.00926
                         0.00926    0.00926    0.00926    0.00926    0.00926    0.00926
                         0.00926    0.00926    0.00926    0.00926    0.00926    0.00926
                         0.00926    0.00926    0.00926    0.00926    0.00926    0.00926
                         0.00926    0.00926    0.00926    0.00926    0.00926    0.00926
                         0.00926    0.00926    0.00926    0.00926    0.00926    0.00926
                         0.00926    0.00926    0.00926    0.00926    0.00926    0.00926
                         0.00926    0.00926
                       outvars : Printing only first  50 k-points.
           xangst     -2.7338079389E-02  5.7352560145E-17  4.7734758588E-17
                       1.3397038676E+00  1.3670464723E+00  1.3670464723E+00
            xcart     -5.1661483045E-02  1.0838063169E-16  9.0205620751E-17
                       2.5316734089E+00  2.5833434435E+00  2.5833434435E+00
             xred     -4.9994743176E-03  4.9994743176E-03 -4.9994743176E-03
                       2.4499947432E-01  2.5500052568E-01  2.4499947432E-01
            znucl       14.00000

- Timing analysis has been suppressed with timopt=0

 Suggested references for the acknowledgment of ABINIT usage.

 Calculation completed.
.Delivered  13 WARNINGs and  16 COMMENTs to log file.

External calculated distance:
distance  4.474477160304806