.Version 8.11.13 of ABINIT

 ABINIT is a project of the Universite Catholique de Louvain,
 Corning Inc. and other collaborators, see ~abinit/doc/developers/contributors.txt .
 acknowledgments of the ABINIT effort.

.Starting date : Fri 10 Jan 2020.
- ( at 12h14 )

 === Build Information ===
  Version       : 8.11.13
  Build target  : x86_64_linux_intel14.0
  Build date    : 20191206

 === Optimizations ===
  Debug level        : basic
  Optimization level : standard
  Architecture       : intel_xeon

 === Multicore ===
  Parallel build : yes
  Parallel I/O   : yes
  openMP support : no
  GPU support    : no

 === Connectors / Fallbacks ===
  Connectors on : yes
  Fallbacks on  : yes
  FFT flavor    : fftw3
  LINALG flavor : mkl
  TIMER flavor  : abinit
  TRIO flavor   : netcdf

 === Experimental features ===
  Exports             : no
  GW double-precision : yes

 Default optimizations:
   -O3

 Optimizations for 43_ptgroups:
   -O0

 CPP options activated during the build:

                  CC_INTEL                   CXX_GNU                  FC_INTEL

 HAVE_FC_ALLOCATABLE_DT...             HAVE_FC_ASYNC  HAVE_FC_COMMAND_ARGUMENT

        HAVE_FC_CONTIGUOUS           HAVE_FC_CPUTIME             HAVE_FC_ETIME

              HAVE_FC_EXIT             HAVE_FC_FLUSH             HAVE_FC_GAMMA

            HAVE_FC_GETENV            HAVE_FC_GETPID   HAVE_FC_IEEE_ARITHMETIC

   HAVE_FC_IEEE_EXCEPTIONS             HAVE_FC_IOMSG     HAVE_FC_ISO_C_BINDING

  HAVE_FC_ISO_FORTRAN_2008        HAVE_FC_LONG_LINES        HAVE_FC_MOVE_ALLOC

  HAVE_FC_ON_THE_FLY_SHAPE           HAVE_FC_PRIVATE         HAVE_FC_PROTECTED

           HAVE_FC_SHIFTLR         HAVE_FC_STREAM_IO            HAVE_FC_SYSTEM

                  HAVE_FFT            HAVE_FFT_FFTW3              HAVE_FFT_MPI

           HAVE_FFT_SERIAL               HAVE_GW_DPC        HAVE_LIBPAW_ABINIT

         HAVE_LINALG_AXPBY        HAVE_LINALG_GEMM3M  HAVE_LINALG_MKL_IMATCOPY

   HAVE_LINALG_MKL_OMATADD  HAVE_LINALG_MKL_OMATCOPY   HAVE_LINALG_MKL_THREADS

        HAVE_LINALG_SERIAL                  HAVE_MPI                 HAVE_MPI2

       HAVE_MPI_IALLREDUCE        HAVE_MPI_IALLTOALL       HAVE_MPI_IALLTOALLV

           HAVE_MPI_IBCAST         HAVE_MPI_IGATHERV        HAVE_MPI_INTEGER16

               HAVE_MPI_IO HAVE_MPI_TYPE_CREATE_S...               HAVE_NETCDF

           HAVE_NETCDF_MPI                HAVE_NUMPY             HAVE_OS_LINUX

         HAVE_TIMER_ABINIT                  HAVE_XML              USE_MACROAVE

- input  file    -> opt.in
- output file    -> opt.out
- root for input  files -> opti
- root for output files -> opto

-instrng: 56 lines of input have been read from file opt.in

 Please give name of formatted atomic psp file
 For atom type 1, psp file is /CECI/home/ucl/naps/jovbever/.PsP/Si/Si.psp8
  read the values zionpsp=  4.0 , pspcod=   8 , lmax=   2

 inpspheads: deduce mpsang = 3, n1xccc = 2501.

invars1m : enter jdtset= 0

 symlatt: the Bravais lattice is cF (face-centered cubic)
  xred   is defined in input file
 ingeo: takes atomic coordinates from input array xred

 symlatt: the Bravais lattice is cF (face-centered cubic)

 symlatt: the Bravais lattice is cF (face-centered cubic)

--- !COMMENT
src_file: m_symfind.F90
src_line: 931
message: |
    The Bravais lattice determined only from the primitive
    vectors, bravais(1)=  7, is more symmetric
    than the real one, iholohedry=  3, obtained by taking into
    account the atomic positions. Start deforming the primitive vector set.
...

 symlatt: the Bravais lattice is oI (body-centered orthorhombic)
 symspgr: spgroup=  74  Im m a   (=D2h^28)

--- !WARNING
src_file: m_mpinfo.F90
src_line: 2292
message: |
    nkpt*nsppol (40) is not a multiple of nproc_kpt (6)
    The k-point parallelisation is inefficient. (Ignore this warning if this is not a GS run)
...

 For input ecut=  4.410000E+00 best grid ngfft=      16      16      16
       max ecut=  4.913370E+00

 ==== FFT mesh ====
  FFT mesh divisions ........................    16   16   16
  Augmented FFT divisions ...................    17   17   16
  FFT algorithm .............................   312
  FFT cache size ............................    16
 getmpw: optimal value of mpw= 165

 Symmetries : space group Im m a (# 74); Bravais oI (body-center ortho.)

 getdim_nloc : deduce lmnmax  =  18, lnmax  =   6,
                      lmnmaxso=  18, lnmaxso=   6.
     intxc =       0    ionmov =       2      iscf =       7    lmnmax =       6
     lnmax =       6     mgfft =      16  mpssoang =       3    mqgrid =    3001
     natom =       2  nloc_mem =       1    nspden =       1   nspinor =       1
    nsppol =       1      nsym =       8    n1xccc =    2501    ntypat =       1
    occopt =       1   xclevel =       2
-    mband =           6        mffmem =           1         mkmem =           7
       mpw =         165          nfft =        4096          nkpt =          40
  Rough estimation (10% accuracy) of disk space for files :

 The job will continue.
------------- Echo of variables that govern the present computation ------------
-
- outvars: echo of selected default values
-   iomode0 =  0 , fftalg0 =312 , wfoptalg0 =  0
-
- outvars: echo of global parameters not present in the input file
-  max_nthreads =    0
-
 -outvars: echo values of preprocessed input variables --------

 These variables are accessible in NetCDF format (opto_OUT.nc)

            acell      1.1338356797E+01  1.1338356797E+01  1.1338356797E+01 Bohr
              amu      2.80855000E+01
          dilatmx      1.05000000E+00
             ecut      4.00000000E+00 Hartree
           ecutsm      5.00000000E-01 Hartree
-          fftalg         312
           ionmov           2
              ixc          11
              kpt     -1.25000000E-01 -2.50000000E-01  0.00000000E+00
                      -2.50000000E-01 -1.25000000E-01  0.00000000E+00
                      -1.25000000E-01  5.00000000E-01  0.00000000E+00
                      -2.50000000E-01 -3.75000000E-01  0.00000000E+00
                      -1.25000000E-01 -3.75000000E-01  1.25000000E-01
                      -3.75000000E-01 -2.50000000E-01  0.00000000E+00
                      -1.25000000E-01 -2.50000000E-01  2.50000000E-01
                       5.00000000E-01 -1.25000000E-01  0.00000000E+00
                      -3.75000000E-01 -1.25000000E-01  1.25000000E-01
                      -1.25000000E-01  2.50000000E-01  0.00000000E+00
                      -2.50000000E-01  3.75000000E-01  0.00000000E+00
                      -3.75000000E-01  5.00000000E-01  0.00000000E+00
                      -2.50000000E-01  5.00000000E-01  1.25000000E-01
                       5.00000000E-01 -3.75000000E-01  0.00000000E+00
                      -2.50000000E-01 -3.75000000E-01  2.50000000E-01
                       3.75000000E-01 -2.50000000E-01  0.00000000E+00
                       5.00000000E-01 -2.50000000E-01  1.25000000E-01
                       2.50000000E-01 -1.25000000E-01  0.00000000E+00
                       3.75000000E-01 -1.25000000E-01  1.25000000E-01
                       5.00000000E-01 -1.25000000E-01  2.50000000E-01
                      -1.25000000E-01  0.00000000E+00  0.00000000E+00
                       3.75000000E-01 -3.75000000E-01  1.25000000E-01
                       2.50000000E-01 -2.50000000E-01  1.25000000E-01
                       3.75000000E-01 -2.50000000E-01  2.50000000E-01
                       0.00000000E+00 -1.25000000E-01  0.00000000E+00
                       1.25000000E-01 -1.25000000E-01  1.25000000E-01
                       2.50000000E-01 -1.25000000E-01  2.50000000E-01
                       3.75000000E-01 -1.25000000E-01  3.75000000E-01
                      -3.75000000E-01  0.00000000E+00  0.00000000E+00
                      -2.50000000E-01  0.00000000E+00  1.25000000E-01
                       2.50000000E-01  5.00000000E-01  1.25000000E-01
                       0.00000000E+00 -3.75000000E-01  0.00000000E+00
                       1.25000000E-01 -3.75000000E-01  1.25000000E-01
                       2.50000000E-01 -3.75000000E-01  2.50000000E-01
                      -2.50000000E-01 -3.75000000E-01 -2.50000000E-01
                       5.00000000E-01  0.00000000E+00  1.25000000E-01
                      -3.75000000E-01  0.00000000E+00  2.50000000E-01
                       2.50000000E-01  0.00000000E+00  1.25000000E-01
                       3.75000000E-01  0.00000000E+00  2.50000000E-01
                       5.00000000E-01  0.00000000E+00  3.75000000E-01
         kptrlatt        4   -4    4     -4    4    4     -4   -4    4
          kptrlen      4.53534272E+01
P           mkmem           7
            natom           2
            nband           6
            ngfft          16      16      16
             nkpt          40
             nsym           8
            ntime          15
           ntypat           1
              occ      2.000000  2.000000  2.000000  2.000000  0.000000  0.000000
          optcell           2
            rprim      5.0000000000E-01  5.0000000000E-01  0.0000000000E+00
                       0.0000000000E+00  5.0000000000E-01  5.0000000000E-01
                       5.0000000000E-01  0.0000000000E+00  5.0000000000E-01
           shiftk      5.00000000E-01  5.00000000E-01  5.00000000E-01
          spgroup          74
           symrel      1  0  0   0  1  0   0  0  1      -1  0  0   0 -1  0   0  0 -1
                       0 -1  1   0 -1  0   1 -1  0       0  1 -1   0  1  0  -1  1  0
                       0  0  1   0  1  0   1  0  0       0  0 -1   0 -1  0  -1  0  0
                       1 -1  0   0 -1  0   0 -1  1      -1  1  0   0  1  0   0  1 -1
            tnons      0.0000000  0.0000000  0.0000000     0.2400000  0.2600000  0.2400000
                       0.0000000  0.0000000  0.0000000     0.2400000  0.2600000  0.2400000
                       0.0000000  0.0000000  0.0000000     0.2400000  0.2600000  0.2400000
                       0.0000000  0.0000000  0.0000000     0.2400000  0.2600000  0.2400000
           tolmxf      1.00000000E-08
           tolvrs      1.00000000E-10
            typat      1  1
              wtk        0.03125    0.03125    0.03125    0.03125    0.03125    0.03125
                         0.03125    0.03125    0.03125    0.03125    0.03125    0.03125
                         0.03125    0.03125    0.03125    0.03125    0.03125    0.03125
                         0.03125    0.03125    0.01563    0.03125    0.03125    0.03125
                         0.01563    0.01563    0.01563    0.01563    0.01563    0.01563
                         0.03125    0.01563    0.01563    0.01563    0.01563    0.01563
                         0.01563    0.01563    0.01563    0.01563
           xangst      0.0000000000E+00  0.0000000000E+00  0.0000000000E+00
                       1.4400000000E+00  1.5000000000E+00  1.5000000000E+00
            xcart      0.0000000000E+00  0.0000000000E+00  0.0000000000E+00
                       2.7212056314E+00  2.8345891993E+00  2.8345891993E+00
             xred      0.0000000000E+00  0.0000000000E+00  0.0000000000E+00
[...]
   0.5000 -0.1250  0.2500    1  3.02696E-15 kpt; spin; max resid(k); each band:
  5.79E-16 6.49E-16 1.15E-15 1.02E-15 1.99E-15 3.03E-15
  -0.1250  0.0000  0.0000    1  3.14544E-10 kpt; spin; max resid(k); each band:
  5.74E-16 4.28E-16 1.16E-16 2.14E-16 3.15E-10 1.17E-10
   0.3750 -0.3750  0.1250    1  2.20944E-15 kpt; spin; max resid(k); each band:
  4.34E-16 5.01E-16 1.95E-15 1.19E-15 1.42E-15 2.21E-15
   0.2500 -0.2500  0.1250    1  3.04473E-15 kpt; spin; max resid(k); each band:
  7.32E-16 1.02E-15 5.96E-16 8.75E-16 7.24E-16 3.04E-15
   0.3750 -0.2500  0.2500    1  2.94454E-15 kpt; spin; max resid(k); each band:
  6.78E-16 3.83E-16 2.00E-15 6.77E-16 7.93E-16 2.94E-15
   0.0000 -0.1250  0.0000    1  5.11267E-11 kpt; spin; max resid(k); each band:
  5.91E-16 4.89E-16 2.17E-16 3.05E-16 5.11E-11 2.28E-13
   0.1250 -0.1250  0.1250    1  1.05916E-15 kpt; spin; max resid(k); each band:
  1.06E-15 6.39E-16 7.21E-18 4.69E-16 9.66E-16 5.52E-16
   0.2500 -0.1250  0.2500    1  1.24927E-15 kpt; spin; max resid(k); each band:
  1.25E-15 2.98E-16 8.65E-16 3.48E-18 1.15E-15 1.14E-15
   0.3750 -0.1250  0.3750    1  1.86217E-15 kpt; spin; max resid(k); each band:
  1.12E-15 5.67E-16 1.01E-15 4.52E-17 6.51E-16 1.86E-15
  -0.3750  0.0000  0.0000    1  1.47726E-14 kpt; spin; max resid(k); each band:
  7.08E-16 1.40E-15 5.33E-17 1.94E-16 1.88E-15 1.48E-14
  -0.2500  0.0000  0.1250    1  2.21411E-15 kpt; spin; max resid(k); each band:
  3.72E-16 9.73E-16 2.23E-16 4.71E-17 2.21E-15 1.16E-16
   0.2500  0.5000  0.1250    1  2.08678E-15 kpt; spin; max resid(k); each band:
  8.83E-16 7.05E-16 1.11E-15 5.13E-16 1.30E-15 2.09E-15
   0.0000 -0.3750  0.0000    1  8.67018E-12 kpt; spin; max resid(k); each band:
  8.38E-16 1.40E-15 1.07E-16 2.11E-16 2.73E-15 8.67E-12
   0.1250 -0.3750  0.1250    1  1.68431E-15 kpt; spin; max resid(k); each band:
  4.22E-16 1.68E-15 8.67E-16 6.05E-18 7.45E-16 1.46E-15
   0.2500 -0.3750  0.2500    1  6.74217E-16 kpt; spin; max resid(k); each band:
  3.87E-16 5.90E-16 6.74E-16 3.43E-16 5.36E-16 4.18E-16
  -0.2500 -0.3750 -0.2500    1  5.34685E-15 kpt; spin; max resid(k); each band:
  8.19E-16 7.25E-16 5.49E-16 3.83E-17 5.35E-15 4.30E-17
   0.5000  0.0000  0.1250    1  1.81687E-15 kpt; spin; max resid(k); each band:
  5.12E-16 1.82E-15 9.32E-16 3.19E-17 1.58E-15 1.79E-15
  -0.3750  0.0000  0.2500    1  1.38768E-15 kpt; spin; max resid(k); each band:
  9.77E-17 1.36E-15 3.31E-16 1.45E-16 1.39E-15 3.09E-16
   0.2500  0.0000  0.1250    1  1.07690E-15 kpt; spin; max resid(k); each band:
  1.03E-15 5.82E-16 3.39E-17 6.71E-16 1.08E-15 8.59E-16
   0.3750  0.0000  0.2500    1  1.81263E-15 kpt; spin; max resid(k); each band:
  1.24E-15 3.68E-16 5.23E-16 5.18E-17 1.81E-15 8.79E-16
   0.5000  0.0000  0.3750    1  1.55592E-15 kpt; spin; max resid(k); each band:
  1.08E-15 7.71E-16 5.17E-16 4.11E-17 1.56E-15 8.23E-16

   outwf: writing wavefunctions to: opto_WFK with iomode: IO_MODE_FORTRAN_MASTER
 prteigrs : about to open file opto_EIG
 Fermi (or HOMO) energy (hartree) =   0.14410   Average Vxc (hartree)=  -0.33965
 Eigenvalues (hartree) for nkpt=  40  k points:
 kpt#   1, nband=  6, wtk=  0.03125, kpt= -0.1250 -0.2500  0.0000 (reduced coord)
  -0.23623    0.04758    0.10615    0.11246    0.24274    0.30547
 kpt#   2, nband=  6, wtk=  0.03125, kpt= -0.2500 -0.1250  0.0000 (reduced coord)
  -0.23623    0.04757    0.10616    0.11246    0.24274    0.30548
 kpt#   3, nband=  6, wtk=  0.03125, kpt= -0.1250  0.5000  0.0000 (reduced coord)
  -0.17440   -0.08209    0.07506    0.09647    0.25232    0.29666
 kpt#   4, nband=  6, wtk=  0.03125, kpt= -0.2500 -0.3750  0.0000 (reduced coord)
  -0.19858   -0.01064    0.05869    0.07312    0.21735    0.27639
 kpt#   5, nband=  6, wtk=  0.03125, kpt= -0.1250 -0.3750  0.1250 (reduced coord)
  -0.18307   -0.04572    0.03694    0.08410    0.27231    0.29721
 kpt#   6, nband=  6, wtk=  0.03125, kpt= -0.3750 -0.2500  0.0000 (reduced coord)
  -0.19858   -0.01064    0.05869    0.07312    0.21735    0.27639
 kpt#   7, nband=  6, wtk=  0.03125, kpt= -0.1250 -0.2500  0.2500 (reduced coord)
  -0.18307   -0.04572    0.03694    0.08410    0.27231    0.29722
 kpt#   8, nband=  6, wtk=  0.03125, kpt=  0.5000 -0.1250  0.0000 (reduced coord)
  -0.17441   -0.08209    0.07506    0.09647    0.25232    0.29666
 kpt#   9, nband=  6, wtk=  0.03125, kpt= -0.3750 -0.1250  0.1250 (reduced coord)
  -0.18307   -0.04572    0.03694    0.08410    0.27231    0.29721
 kpt#  10, nband=  6, wtk=  0.03125, kpt= -0.1250  0.2500  0.0000 (reduced coord)
  -0.21888   -0.00328    0.07303    0.12543    0.27363    0.29339
 kpt#  11, nband=  6, wtk=  0.03125, kpt= -0.2500  0.3750  0.0000 (reduced coord)
  -0.15652   -0.07592    0.01194    0.08466    0.23571    0.36284
 kpt#  12, nband=  6, wtk=  0.03125, kpt= -0.3750  0.5000  0.0000 (reduced coord)
  -0.14553   -0.07869    0.02946    0.05560    0.20129    0.24002
 kpt#  13, nband=  6, wtk=  0.03125, kpt= -0.2500  0.5000  0.1250 (reduced coord)
  -0.13847   -0.08378    0.00774    0.04658    0.25362    0.32311
 kpt#  14, nband=  6, wtk=  0.03125, kpt=  0.5000 -0.3750  0.0000 (reduced coord)
  -0.14553   -0.07869    0.02946    0.05560    0.20129    0.24002
 kpt#  15, nband=  6, wtk=  0.03125, kpt= -0.2500 -0.3750  0.2500 (reduced coord)
  -0.13847   -0.08378    0.00774    0.04658    0.25362    0.32311
 kpt#  16, nband=  6, wtk=  0.03125, kpt=  0.3750 -0.2500  0.0000 (reduced coord)
  -0.15652   -0.07592    0.01194    0.08466    0.23571    0.36284
 kpt#  17, nband=  6, wtk=  0.03125, kpt=  0.5000 -0.2500  0.1250 (reduced coord)
  -0.13847   -0.08378    0.00774    0.04658    0.25362    0.32311
 kpt#  18, nband=  6, wtk=  0.03125, kpt=  0.2500 -0.1250  0.0000 (reduced coord)
  -0.21888   -0.00328    0.07303    0.12543    0.27363    0.29339
 kpt#  19, nband=  6, wtk=  0.03125, kpt=  0.3750 -0.1250  0.1250 (reduced coord)
  -0.18307   -0.04572    0.03694    0.08410    0.27231    0.29721
 kpt#  20, nband=  6, wtk=  0.03125, kpt=  0.5000 -0.1250  0.2500 (reduced coord)
  -0.13847   -0.08378    0.00774    0.04658    0.25362    0.32310
 kpt#  21, nband=  6, wtk=  0.01563, kpt= -0.1250  0.0000  0.0000 (reduced coord)
  -0.25699    0.10254    0.14409    0.14410    0.26227    0.26628
 kpt#  22, nband=  6, wtk=  0.03125, kpt=  0.3750 -0.3750  0.1250 (reduced coord)
  -0.13846   -0.08378    0.00774    0.04658    0.25362    0.32311
 kpt#  23, nband=  6, wtk=  0.03125, kpt=  0.2500 -0.2500  0.1250 (reduced coord)
  -0.18307   -0.04572    0.03694    0.08410    0.27231    0.29721
 kpt#  24, nband=  6, wtk=  0.03125, kpt=  0.3750 -0.2500  0.2500 (reduced coord)
  -0.13846   -0.08378    0.00774    0.04658    0.25362    0.32311
 kpt#  25, nband=  6, wtk=  0.01563, kpt=  0.0000 -0.1250  0.0000 (reduced coord)
  -0.25699    0.10254    0.14409    0.14410    0.26226    0.26628
 kpt#  26, nband=  6, wtk=  0.01563, kpt=  0.1250 -0.1250  0.1250 (reduced coord)
  -0.23623    0.04758    0.10615    0.11247    0.24274    0.30548
 kpt#  27, nband=  6, wtk=  0.01563, kpt=  0.2500 -0.1250  0.2500 (reduced coord)
  -0.19858   -0.01064    0.05869    0.07312    0.21734    0.27639
 kpt#  28, nband=  6, wtk=  0.01563, kpt=  0.3750 -0.1250  0.3750 (reduced coord)
  -0.14553   -0.07869    0.02946    0.05560    0.20129    0.24002
 kpt#  29, nband=  6, wtk=  0.01563, kpt= -0.3750  0.0000  0.0000 (reduced coord)
  -0.20171   -0.05261    0.11388    0.11388    0.24335    0.28726
 kpt#  30, nband=  6, wtk=  0.01563, kpt= -0.2500  0.0000  0.1250 (reduced coord)
  -0.21888   -0.00328    0.07303    0.12543    0.27363    0.29339
 kpt#  31, nband=  6, wtk=  0.03125, kpt=  0.2500  0.5000  0.1250 (reduced coord)
  -0.18307   -0.04572    0.03694    0.08410    0.27231    0.29721
 kpt#  32, nband=  6, wtk=  0.01563, kpt=  0.0000 -0.3750  0.0000 (reduced coord)
  -0.20171   -0.05260    0.11387    0.11388    0.24334    0.28726
 kpt#  33, nband=  6, wtk=  0.01563, kpt=  0.1250 -0.3750  0.1250 (reduced coord)
  -0.17440   -0.08209    0.07506    0.09647    0.25232    0.29666
 kpt#  34, nband=  6, wtk=  0.01563, kpt=  0.2500 -0.3750  0.2500 (reduced coord)
  -0.15652   -0.07592    0.01194    0.08465    0.23571    0.36284
 kpt#  35, nband=  6, wtk=  0.01563, kpt= -0.2500 -0.3750 -0.2500 (reduced coord)
  -0.21888   -0.00328    0.07303    0.12543    0.27363    0.29339
 kpt#  36, nband=  6, wtk=  0.01563, kpt=  0.5000  0.0000  0.1250 (reduced coord)
  -0.17441   -0.08209    0.07507    0.09647    0.25232    0.29666
 kpt#  37, nband=  6, wtk=  0.01563, kpt= -0.3750  0.0000  0.2500 (reduced coord)
  -0.15652   -0.07592    0.01194    0.08466    0.23571    0.36284
 kpt#  38, nband=  6, wtk=  0.01563, kpt=  0.2500  0.0000  0.1250 (reduced coord)
  -0.23623    0.04757    0.10615    0.11247    0.24274    0.30548
 kpt#  39, nband=  6, wtk=  0.01563, kpt=  0.3750  0.0000  0.2500 (reduced coord)
  -0.19858   -0.01064    0.05869    0.07312    0.21734    0.27639
 kpt#  40, nband=  6, wtk=  0.01563, kpt=  0.5000  0.0000  0.3750 (reduced coord)
  -0.14553   -0.07869    0.02946    0.05560    0.20129    0.24001
 Total charge density [el/Bohr^3]
      Maximum=    8.9729E-02  at reduced coord.    0.1250    0.6250    0.1250
 Next maximum=    8.9729E-02  at reduced coord.    0.1250    0.1250    0.1250
      Minimum=    3.1988E-03  at reduced coord.    0.5000    0.5000    0.5000
 Next minimum=    3.1988E-03  at reduced coord.    0.7500    0.7500    0.7500
   Integrated=    8.0000E+00

 Cartesian components of stress tensor (hartree/bohr^3)
  sigma(1 1)= -2.28070197E-08  sigma(3 2)= -2.12727591E-08
  sigma(2 2)= -1.65997314E-09  sigma(3 1)=  0.00000000E+00
  sigma(3 3)= -1.65997314E-09  sigma(2 1)=  0.00000000E+00

-Cartesian components of stress tensor (GPa)         [Pressure=  2.5623E-04 GPa]
- sigma(1 1)= -6.71005574E-04  sigma(3 2)= -6.25866076E-04
- sigma(2 2)= -4.88380876E-05  sigma(3 1)=  0.00000000E+00
- sigma(3 3)= -4.88380876E-05  sigma(2 1)=  0.00000000E+00

== END DATASET(S) ==============================================================

 -outvars: echo values of variables after computation  --------

 These variables are accessible in NetCDF format (opto_OUT.nc)

            acell      7.2937288173E+00  7.2937248935E+00  7.2937288173E+00 Bohr
              amu      2.80855000E+01
          dilatmx      1.05000000E+00
             ecut      4.00000000E+00 Hartree
           ecutsm      5.00000000E-01 Hartree
           etotal     -8.3774237429E+00
            fcart     -1.2017693099E-06  0.0000000000E+00  0.0000000000E+00
                       1.2017693099E-06  0.0000000000E+00  0.0000000000E+00
-          fftalg         312
           ionmov           2
              ixc          11
              kpt     -1.25000000E-01 -2.50000000E-01  0.00000000E+00
                      -2.50000000E-01 -1.25000000E-01  0.00000000E+00
                      -1.25000000E-01  5.00000000E-01  0.00000000E+00
                      -2.50000000E-01 -3.75000000E-01  0.00000000E+00
                      -1.25000000E-01 -3.75000000E-01  1.25000000E-01
                      -3.75000000E-01 -2.50000000E-01  0.00000000E+00
                      -1.25000000E-01 -2.50000000E-01  2.50000000E-01
                       5.00000000E-01 -1.25000000E-01  0.00000000E+00
                      -3.75000000E-01 -1.25000000E-01  1.25000000E-01
                      -1.25000000E-01  2.50000000E-01  0.00000000E+00
                      -2.50000000E-01  3.75000000E-01  0.00000000E+00
                      -3.75000000E-01  5.00000000E-01  0.00000000E+00
                      -2.50000000E-01  5.00000000E-01  1.25000000E-01
                       5.00000000E-01 -3.75000000E-01  0.00000000E+00
                      -2.50000000E-01 -3.75000000E-01  2.50000000E-01
                       3.75000000E-01 -2.50000000E-01  0.00000000E+00
                       5.00000000E-01 -2.50000000E-01  1.25000000E-01
                       2.50000000E-01 -1.25000000E-01  0.00000000E+00
                       3.75000000E-01 -1.25000000E-01  1.25000000E-01
                       5.00000000E-01 -1.25000000E-01  2.50000000E-01
                      -1.25000000E-01  0.00000000E+00  0.00000000E+00
                       3.75000000E-01 -3.75000000E-01  1.25000000E-01
                       2.50000000E-01 -2.50000000E-01  1.25000000E-01
                       3.75000000E-01 -2.50000000E-01  2.50000000E-01
                       0.00000000E+00 -1.25000000E-01  0.00000000E+00
                       1.25000000E-01 -1.25000000E-01  1.25000000E-01
                       2.50000000E-01 -1.25000000E-01  2.50000000E-01
                       3.75000000E-01 -1.25000000E-01  3.75000000E-01
                      -3.75000000E-01  0.00000000E+00  0.00000000E+00
                      -2.50000000E-01  0.00000000E+00  1.25000000E-01
                       2.50000000E-01  5.00000000E-01  1.25000000E-01
                       0.00000000E+00 -3.75000000E-01  0.00000000E+00
                       1.25000000E-01 -3.75000000E-01  1.25000000E-01
                       2.50000000E-01 -3.75000000E-01  2.50000000E-01
                      -2.50000000E-01 -3.75000000E-01 -2.50000000E-01
                       5.00000000E-01  0.00000000E+00  1.25000000E-01
                      -3.75000000E-01  0.00000000E+00  2.50000000E-01
                       2.50000000E-01  0.00000000E+00  1.25000000E-01
                       3.75000000E-01  0.00000000E+00  2.50000000E-01
                       5.00000000E-01  0.00000000E+00  3.75000000E-01
         kptrlatt        4   -4    4     -4    4    4     -4   -4    4
          kptrlen      4.53534272E+01
P           mkmem           7
            natom           2
            nband           6
            ngfft          16      16      16
             nkpt          40
             nsym           8
            ntime          15
           ntypat           1
              occ      2.000000  2.000000  2.000000  2.000000  0.000000  0.000000
          optcell           2
            rprim      7.0710471371E-01  7.0710884865E-01 -2.4478705376E-06
                       0.0000000000E+00  7.0710678119E-01  7.0710678119E-01
                       7.0710471371E-01 -2.4478705376E-06  7.0710884865E-01
           shiftk      5.00000000E-01  5.00000000E-01  5.00000000E-01
          spgroup          74
           strten     -2.2807019747E-08 -1.6599731364E-09 -1.6599731359E-09
                      -2.1272759136E-08  0.0000000000E+00  0.0000000000E+00
           symrel      1  0  0   0  1  0   0  0  1      -1  0  0   0 -1  0   0  0 -1
                       0 -1  1   0 -1  0   1 -1  0       0  1 -1   0  1  0  -1  1  0
                       0  0  1   0  1  0   1  0  0       0  0 -1   0 -1  0  -1  0  0
                       1 -1  0   0 -1  0   0 -1  1      -1  1  0   0  1  0   0  1 -1
            tnons      0.0000000  0.0000000  0.0000000     0.2400000  0.2600000  0.2400000
                       0.0000000  0.0000000  0.0000000     0.2400000  0.2600000  0.2400000
                       0.0000000  0.0000000  0.0000000     0.2400000  0.2600000  0.2400000
                       0.0000000  0.0000000  0.0000000     0.2400000  0.2600000  0.2400000
           tolmxf      1.00000000E-08
           tolvrs      1.00000000E-10
            typat      1  1
              wtk        0.03125    0.03125    0.03125    0.03125    0.03125    0.03125
                         0.03125    0.03125    0.03125    0.03125    0.03125    0.03125
                         0.03125    0.03125    0.03125    0.03125    0.03125    0.03125
                         0.03125    0.03125    0.01563    0.03125    0.03125    0.03125
                         0.01563    0.01563    0.01563    0.01563    0.01563    0.01563
                         0.03125    0.01563    0.01563    0.01563    0.01563    0.01563
                         0.01563    0.01563    0.01563    0.01563
           xangst     -2.7291758460E-02 -6.3738073295E-17 -5.8750472108E-17
                       1.3373050826E+00  1.3646004684E+00  1.3646004684E+00
            xcart     -5.1573949175E-02 -1.2044750276E-16 -1.1102230246E-16
                       2.5271403623E+00  2.5787211662E+00  2.5787211662E+00
             xred     -4.9999659620E-03  4.9999659620E-03 -4.9999659620E-03
                       2.4499996596E-01  2.5500003404E-01  2.4499996596E-01
            znucl       14.00000

 Suggested references for the acknowledgment of ABINIT usage.

 Calculation completed.
.Delivered  13 WARNINGs and  15 COMMENTs to log file.

--- !FinalSummary
program: abinit
version: 8.11.13
start_datetime: Fri Jan 10 12:14:41 2020
end_datetime: Fri Jan 10 12:15:30 2020
overall_cpu_time:         233.7
overall_wall_time:         292.7
exit_requested_by_user: no
timelimit: 0
pseudos:
    Si  : 45c393525680abc7b25445b8ec62bf83
usepaw: 0
mpi_procs: 6
omp_threads: 1
num_warnings: 13
num_comments: 15
...