.Version 8.11.13 of ABINIT

 ABINIT is a project of the Universite Catholique de Louvain,
 Corning Inc. and other collaborators, see ~abinit/doc/developers/contributors.txt .
 acknowledgments of the ABINIT effort.

.Starting date : Fri 10 Jan 2020.
- ( at 12h21 )

- input  file    -> opt.in
- output file    -> opt.out
- root for input  files -> opti
- root for output files -> opto

 Symmetries : space group Im m a (# 74); Bravais oI (body-center ortho.)
     intxc =       0    ionmov =       2      iscf =       7    lmnmax =       6
     lnmax =       6     mgfft =      20  mpssoang =       3    mqgrid =    3001
     natom =       2  nloc_mem =       1    nspden =       1   nspinor =       1
    nsppol =       1      nsym =       8    n1xccc =    2501    ntypat =       1
    occopt =       1   xclevel =       2
-    mband =           6        mffmem =           1         mkmem =           1
       mpw =         299          nfft =        8000          nkpt =           6
  Rough estimation (10% accuracy) of disk space for files :

------------- Echo of variables that govern the present computation ------------
-
- outvars: echo of selected default values
-   iomode0 =  0 , fftalg0 =312 , wfoptalg0 =  0
-
- outvars: echo of global parameters not present in the input file
-  max_nthreads =    0
-
 -outvars: echo values of preprocessed input variables --------
            acell      1.1338356797E+01  1.1338356797E+01  1.1338356797E+01 Bohr
              amu      2.80855000E+01
          dilatmx      1.05000000E+00
             ecut      6.00000000E+00 Hartree
           ecutsm      5.00000000E-01 Hartree
-          fftalg         312
           ionmov           2
              ixc          11
              kpt     -2.50000000E-01  5.00000000E-01  0.00000000E+00
                       5.00000000E-01 -2.50000000E-01  0.00000000E+00
                      -2.50000000E-01  0.00000000E+00  0.00000000E+00
                       0.00000000E+00 -2.50000000E-01  0.00000000E+00
                       2.50000000E-01 -2.50000000E-01  2.50000000E-01
                       5.00000000E-01  0.00000000E+00  2.50000000E-01
         kptrlatt        2   -2    2     -2    2    2     -2   -2    2
          kptrlen      2.26767136E+01
P           mkmem           1
            natom           2
            nband           6
            ngfft          20      20      20
             nkpt           6
             nsym           8
            ntime          15
           ntypat           1
              occ      2.000000  2.000000  2.000000  2.000000  0.000000  0.000000
          optcell           2
            rprim      5.0000000000E-01  5.0000000000E-01  0.0000000000E+00
                       0.0000000000E+00  5.0000000000E-01  5.0000000000E-01
                       5.0000000000E-01  0.0000000000E+00  5.0000000000E-01
           shiftk      5.00000000E-01  5.00000000E-01  5.00000000E-01
          spgroup          74
           symrel      1  0  0   0  1  0   0  0  1      -1  0  0   0 -1  0   0  0 -1
                       0 -1  1   0 -1  0   1 -1  0       0  1 -1   0  1  0  -1  1  0
                       0  0  1   0  1  0   1  0  0       0  0 -1   0 -1  0  -1  0  0
                       1 -1  0   0 -1  0   0 -1  1      -1  1  0   0  1  0   0  1 -1
            tnons      0.0000000  0.0000000  0.0000000     0.2400000  0.2600000  0.2400000
                       0.0000000  0.0000000  0.0000000     0.2400000  0.2600000  0.2400000
                       0.0000000  0.0000000  0.0000000     0.2400000  0.2600000  0.2400000
                       0.0000000  0.0000000  0.0000000     0.2400000  0.2600000  0.2400000
           tolmxf      1.00000000E-08
           tolvrs      1.00000000E-10
            typat      1  1
              wtk        0.25000    0.25000    0.12500    0.12500    0.12500    0.12500
           xangst      0.0000000000E+00  0.0000000000E+00  0.0000000000E+00
                       1.4400000000E+00  1.5000000000E+00  1.5000000000E+00
            xcart      0.0000000000E+00  0.0000000000E+00  0.0000000000E+00
                       2.7212056314E+00  2.8345891993E+00  2.8345891993E+00
             xred      0.0000000000E+00  0.0000000000E+00  0.0000000000E+00
                       2.4000000000E-01  2.6000000000E-01  2.4000000000E-01
            znucl       14.00000

 chkinp: Checking input parameters for consistency.

 chkinp: WARNING -
   Chksymbreak=1 . Found potentially symmetry-breaking value of tnons,
   which is neither a rational fraction in 1/8th nor in 1/12th :
   for the symmetry number    2
   symrel is  -1  0  0  0 -1  0  0  0 -1
   tnons is     2.400000E-01    2.600000E-01    2.400000E-01
   Please, read the description of the input variable chksymbreak,
   then, if you feel confident, you might switch it to zero, or consult with the forum.

[...]

 chkinp: WARNING -
   Chksymbreak=1 . Found potentially symmetry-breaking value of tnons,
   which is neither a rational fraction in 1/8th nor in 1/12th :
   for the symmetry number    8
   symrel is  -1  1  0  0  1  0  0  1 -1
   tnons is     2.400000E-01    2.600000E-01    2.400000E-01
   Please, read the description of the input variable chksymbreak,
   then, if you feel confident, you might switch it to zero, or consult with the forum.

== DATASET  1 ==================================================================
-   nproc =    6

 Real(R)+Recip(G) space primitive vectors, cartesian coordinates (Bohr,Bohr^-1):
 R(1)=  5.6691784  5.6691784  0.0000000  G(1)=  0.0881962  0.0881962 -0.0881962
 R(2)=  0.0000000  5.6691784  5.6691784  G(2)= -0.0881962  0.0881962  0.0881962
 R(3)=  5.6691784  0.0000000  5.6691784  G(3)=  0.0881962 -0.0881962  0.0881962
 Unit cell volume ucvol=  3.6441007E+02 bohr^3
 Angles (23,13,12)=  6.00000000E+01  6.00000000E+01  6.00000000E+01 degrees

 getcut: wavevector=  0.0000  0.0000  0.0000  ngfft=  20  20  20
         ecut(hartree)=      6.615   => boxcut(ratio)=   2.15459

--- Pseudopotential description ------------------------------------------------
- pspini: atom type   1  psp file is /CECI/home/ucl/naps/jovbever/.PsP/Si/Si.psp8
- pspatm: opening atomic psp file    /CECI/home/ucl/naps/jovbever/.PsP/Si/Si.psp8
- Si    ONCVPSP-3.2.3.1  r_core=   1.60303   1.72197   1.91712
- 14.00000   4.00000    170510                znucl, zion, pspdat
    8   11    2    4       600   0.00000      pspcod,pspxc,lmax,lloc,mmax,r2well
    5.99000000000000    4.00000000000000    0.00000000000000   rchrg,fchrg,qchrg
     nproj     2     2     2
     extension_switch     1
  pspatm : epsatm=    9.34321699
         --- l  ekb(1:nproj) -->
             0    5.168965    0.829883
             1    2.571282    0.578307
             2   -2.427311   -0.488097
 pspatm: atomic psp has been read  and splines computed

   1.49491472E+02                                ecore*ucvol(ha*bohr**3)

_setup2: Arith. and geom. avg. npw (full set) are     295.250     295.242

=== [ionmov= 2] Broyden-Fletcher-Goldfard-Shanno method (forces)

--- Iteration: ( 1/15) Internal Cycle: (1/1)

---SELF-CONSISTENT-FIELD CONVERGENCE--------------------------------------------

     iter   Etot(hartree)      deltaE(h)  residm     vres2
 ETOT  1  -8.4091374898787    -8.409E+00 3.938E-03 6.092E-01
 ETOT  2  -8.4102065415426    -1.069E-03 8.355E-05 2.316E-02
 ETOT  3  -8.4102151125896    -8.571E-06 3.925E-05 1.962E-03
 ETOT  4  -8.4102155041539    -3.916E-07 1.039E-05 1.792E-04
 ETOT  5  -8.4102155823710    -7.822E-08 5.857E-06 2.061E-06
 ETOT  6  -8.4102155834239    -1.053E-09 1.870E-06 3.242E-08
 ETOT  7  -8.4102155834344    -1.047E-11 1.088E-06 2.944E-10
 ETOT  8  -8.4102155834345    -8.349E-14 3.691E-07 2.385E-12

 At SCF step    8       vres2   =  2.38E-12 < tolvrs=  1.00E-10 =>converged.

 Cartesian components of stress tensor (hartree/bohr^3)
  sigma(1 1)=  4.56611686E-04  sigma(3 2)= -4.93614469E-06
  sigma(2 2)=  4.55292610E-04  sigma(3 1)=  0.00000000E+00
  sigma(3 3)=  4.55292610E-04  sigma(2 1)=  0.00000000E+00

 Integrated electronic density in atomic spheres:
 Atom  Sphere_radius  Integrated_density
    1        2.00000          1.45870624
    2        2.00000          1.54986528

---OUTPUT-----------------------------------------------------------------------

 Cartesian coordinates (xcart) [bohr]
  0.00000000000000E+00  0.00000000000000E+00  0.00000000000000E+00
  2.72120563135533E+00  2.83458919932846E+00  2.83458919932846E+00
 Reduced coordinates (xred)
  0.00000000000000E+00  0.00000000000000E+00  0.00000000000000E+00
  2.40000000000000E-01  2.60000000000000E-01  2.40000000000000E-01
 Cartesian forces (fcart) [Ha/bohr]; max,rms= 9.46291E-03 5.46342E-03 (free atoms)
 -9.46291302999040E-03  0.00000000000000E+00  0.00000000000000E+00
  9.46291302999040E-03  0.00000000000000E+00  0.00000000000000E+00
 Reduced forces (fred)
  5.36469421379907E-02  0.00000000000000E+00  5.36469421379907E-02
 -5.36469421379907E-02  0.00000000000000E+00 -5.36469421379907E-02
 Scale of Primitive Cell (acell) [bohr]
  1.13383567973139E+01  1.13383567973139E+01  1.13383567973139E+01
 Real space primitive translations (rprimd) [bohr]
  5.66917839865693E+00  5.66917839865693E+00  0.00000000000000E+00
  0.00000000000000E+00  5.66917839865693E+00  5.66917839865693E+00
  5.66917839865693E+00  0.00000000000000E+00  5.66917839865693E+00
 Unitary Cell Volume (ucvol) [Bohr^3]=  3.64410067486860E+02
 Angles (23,13,12)= [degrees]
  6.00000000000000E+01  6.00000000000000E+01  6.00000000000000E+01
 Lengths [Bohr]
  8.01742897889321E+00  8.01742897889321E+00  8.01742897889321E+00
 Stress tensor in cartesian coordinates (strten) [Ha/bohr^3]
  4.56611686253843E-04  0.00000000000000E+00  0.00000000000000E+00
  0.00000000000000E+00  4.55292610151941E-04 -4.93614468758112E-06
  0.00000000000000E+00 -4.93614468758112E-06  4.55292610151941E-04
 Total energy (etotal) [Ha]= -8.41021558343445E+00

[...]

 Difference of energy with previous step (new-old):
           Absolute (Ha)=-6.74208E-03
           Relative     =-8.01332E-04

[...]

 Difference of energy with previous step (new-old):
           Absolute (Ha)= 8.66683E-05
           Relative     = 1.02746E-05

[...]

--- Iteration: ( 9/15) Internal Cycle: (1/1)

[...]

--- Iteration: (10/15) Internal Cycle: (1/1)

[...]

--- Iteration: (15/15) Internal Cycle: (1/1)

---SELF-CONSISTENT-FIELD CONVERGENCE--------------------------------------------

     iter   Etot(hartree)      deltaE(h)  residm     vres2
 ETOT  1  -8.4355487456561    -8.436E+00 3.355E-13 1.124E-07
 ETOT  2  -8.4355487457018    -4.571E-11 3.048E-14 3.299E-09
 ETOT  3  -8.4355487457034    -1.599E-12 5.181E-14 3.481E-10
 ETOT  4  -8.4355487457036    -1.581E-13 1.823E-14 2.300E-12

 At SCF step    4       vres2   =  2.30E-12 < tolvrs=  1.00E-10 =>converged.

[...]

 Integrated electronic density in atomic spheres:
 Atom  Sphere_radius  Integrated_density
    1        2.00000          1.74132695
    2        2.00000          1.74132682

---OUTPUT-----------------------------------------------------------------------

 Cartesian coordinates (xcart) [bohr]
 -5.16760378738199E-02  3.83044312965054E-17  2.08166817117217E-17
  2.53236920739920E+00  2.58405327914120E+00  2.58405327914120E+00
 Reduced coordinates (xred)
 -4.99950950890458E-03  4.99950950890459E-03 -4.99950950890459E-03
  2.44999509508905E-01  2.55000490491096E-01  2.44999509508905E-01
 Cartesian forces (fcart) [Ha/bohr]; max,rms= 1.09537E-06 6.32410E-07 (free atoms)
 -1.09536540784094E-06  0.00000000000000E+00  0.00000000000000E+00
  1.09536540784094E-06  0.00000000000000E+00  0.00000000000000E+00
 Reduced forces (fred)
  5.66096976117790E-06  0.00000000000000E+00  5.66096976117790E-06
 -5.66096976117790E-06  0.00000000000000E+00 -5.66096976117790E-06
 Scale of Primitive Cell (acell) [bohr]
  7.30880600619037E+00  7.30880638651229E+00  7.30880600619037E+00
 Real space primitive translations (rprimd) [bohr]
  5.16811076984453E+00  5.16810180885775E+00  4.74942463143325E-06
  0.00000000000000E+00  5.16810655828239E+00  5.16810655828239E+00
  5.16811076984453E+00  4.74942463147659E-06  5.16810180885775E+00
 Unitary Cell Volume (ucvol) [Bohr^3]=  2.76072997070780E+02
 Angles (23,13,12)= [degrees]
  5.99999982786589E+01  5.99998818432815E+01  5.99999982786589E+01
 Lengths [Bohr]
  7.30880600619037E+00  7.30880638651229E+00  7.30880600619037E+00
 Stress tensor in cartesian coordinates (strten) [Ha/bohr^3]
  1.43947129532980E-08  0.00000000000000E+00  0.00000000000000E+00
  0.00000000000000E+00  6.78032041926888E-09 -6.86035369788437E-10
  0.00000000000000E+00 -6.86035369788437E-10  6.78032041970256E-09
 Total energy (etotal) [Ha]= -8.43554874570360E+00

 Difference of energy with previous step (new-old):
           Absolute (Ha)=-1.80837E-10
           Relative     =-2.14375E-11

 fconv : WARNING -
  ntime=   15 was not enough Broyd/MD steps to converge gradients:
  max grad (force/stress) = 1.4395E-06 > tolmxf= 1.0000E-08 ha/bohr (free atoms)

 ----iterations are completed or convergence reached----

 Mean square residual over all n,k,spin=   33.819E-16; max=  18.233E-15
 reduced coordinates (array xred) for    2 atoms
      -0.004999509509      0.004999509509     -0.004999509509
       0.244999509509      0.255000490491      0.244999509509
 rms dE/dt=  4.6222E-06; max dE/dt=  5.6610E-06; dE/dt below (all hartree)
    1       0.000005660970      0.000000000000      0.000005660970
    2      -0.000005660970      0.000000000000     -0.000005660970

 cartesian coordinates (angstrom) at end:
    1     -0.02734578147306     0.00000000000000     0.00000000000000
    2      1.34007206829078     1.36742210110377     1.36742210110377

 cartesian forces (hartree/bohr) at end:
    1     -0.00000109536541     0.00000000000000     0.00000000000000
    2      0.00000109536541     0.00000000000000     0.00000000000000
 frms,max,avg= 6.3240951E-07 1.0953654E-06   0.000E+00  0.000E+00  0.000E+00 h/b

 cartesian forces (eV/Angstrom) at end:
    1     -0.00005632594922     0.00000000000000     0.00000000000000
    2      0.00005632594922     0.00000000000000     0.00000000000000
 frms,max,avg= 3.2519802E-05 5.6325949E-05   0.000E+00  0.000E+00  0.000E+00 e/A
 length scales=  7.308806006190  7.308806386512  7.308806006190 bohr
              =  3.867653560482  3.867653761739  3.867653560482 angstroms
 prteigrs : about to open file opto_EIG
 Fermi (or HOMO) energy (hartree) =   0.12697   Average Vxc (hartree)=  -0.33778
 Eigenvalues (hartree) for nkpt=   6  k points:
 kpt#   1, nband=  6, wtk=  0.25000, kpt= -0.2500  0.5000  0.0000 (reduced coord)
  -0.17882   -0.07537    0.02708    0.07423    0.21408    0.32093
 prteigrs : prtvol=0 or 1, do not print more k-points.

 Components of total free energy (in Hartree) :

    Kinetic energy  =  3.03563801769421E+00
    Hartree energy  =  5.58778996922909E-01
    XC energy       = -3.08110825879407E+00
    Ewald energy    = -8.33852757548788E+00
    PspCore energy  =  5.41492552404811E-01
    Loc. psp. energy= -2.29968313657351E+00
    NL   psp  energy=  1.14786065812994E+00
    >>>>>>>>> Etotal= -8.43554874570359E+00

 Other information on the energy :
    Total energy(eV)= -2.29542954989082E+02 ; Band energy (Ha)=  -2.1935942431E-01

 rms coord change=  4.9995E-03   atom, delta coord (reduced):
     1       -0.004999509509      0.004999509509     -0.004999509509
     2        0.004999509509     -0.004999509509      0.004999509509

 Cartesian components of stress tensor (hartree/bohr^3)
  sigma(1 1)=  1.43947130E-08  sigma(3 2)= -6.86035370E-10
  sigma(2 2)=  6.78032042E-09  sigma(3 1)=  0.00000000E+00
  sigma(3 3)=  6.78032042E-09  sigma(2 1)=  0.00000000E+00

-Cartesian components of stress tensor (GPa)         [Pressure= -2.7416E-04 GPa]
- sigma(1 1)=  4.23507005E-04  sigma(3 2)= -2.01838540E-05
- sigma(2 2)=  1.99483880E-04  sigma(3 1)=  0.00000000E+00
- sigma(3 3)=  1.99483880E-04  sigma(2 1)=  0.00000000E+00

== END DATASET(S) ==============================================================

 -outvars: echo values of variables after computation  --------
            acell      7.3088060062E+00  7.3088063865E+00  7.3088060062E+00 Bohr
              amu      2.80855000E+01
          dilatmx      1.05000000E+00
             ecut      6.00000000E+00 Hartree
           ecutsm      5.00000000E-01 Hartree
           etotal     -8.4355487457E+00
            fcart     -1.0953654078E-06  0.0000000000E+00  0.0000000000E+00
                       1.0953654078E-06  0.0000000000E+00  0.0000000000E+00
-          fftalg         312
           ionmov           2
              ixc          11
              kpt     -2.50000000E-01  5.00000000E-01  0.00000000E+00
                       5.00000000E-01 -2.50000000E-01  0.00000000E+00
                      -2.50000000E-01  0.00000000E+00  0.00000000E+00
                       0.00000000E+00 -2.50000000E-01  0.00000000E+00
                       2.50000000E-01 -2.50000000E-01  2.50000000E-01
                       5.00000000E-01  0.00000000E+00  2.50000000E-01
         kptrlatt        2   -2    2     -2    2    2     -2   -2    2
          kptrlen      2.26767136E+01
P           mkmem           1
            natom           2
            nband           6
            ngfft          20      20      20
             nkpt           6
             nsym           8
            ntime          15
           ntypat           1
              occ      2.000000  2.000000  2.000000  2.000000  0.000000  0.000000
          optcell           2
            rprim      7.0710739421E-01  7.0710616816E-01  6.4982223190E-07
                       0.0000000000E+00  7.0710678119E-01  7.0710678119E-01
                       7.0710739421E-01  6.4982223190E-07  7.0710616816E-01
           shiftk      5.00000000E-01  5.00000000E-01  5.00000000E-01
          spgroup          74
           strten      1.4394712953E-08  6.7803204193E-09  6.7803204197E-09
                      -6.8603536979E-10  0.0000000000E+00  0.0000000000E+00
           symrel      1  0  0   0  1  0   0  0  1      -1  0  0   0 -1  0   0  0 -1
                       0 -1  1   0 -1  0   1 -1  0       0  1 -1   0  1  0  -1  1  0
                       0  0  1   0  1  0   1  0  0       0  0 -1   0 -1  0  -1  0  0
                       1 -1  0   0 -1  0   0 -1  1      -1  1  0   0  1  0   0  1 -1
            tnons      0.0000000  0.0000000  0.0000000     0.2400000  0.2600000  0.2400000
                       0.0000000  0.0000000  0.0000000     0.2400000  0.2600000  0.2400000
                       0.0000000  0.0000000  0.0000000     0.2400000  0.2600000  0.2400000
                       0.0000000  0.0000000  0.0000000     0.2400000  0.2600000  0.2400000
           tolmxf      1.00000000E-08
           tolvrs      1.00000000E-10
            typat      1  1
              wtk        0.25000    0.25000    0.12500    0.12500    0.12500    0.12500
           xangst     -2.7345781473E-02  2.0269832030E-17  1.1015713520E-17
                       1.3400720683E+00  1.3674221011E+00  1.3674221011E+00
            xcart     -5.1676037874E-02  3.8304431297E-17  2.0816681712E-17
                       2.5323692074E+00  2.5840532791E+00  2.5840532791E+00
             xred     -4.9995095089E-03  4.9995095089E-03 -4.9995095089E-03
                       2.4499950951E-01  2.5500049049E-01  2.4499950951E-01
            znucl       14.00000

- Timing analysis has been suppressed with timopt=0

 Suggested references for the acknowledgment of ABINIT usage.

 Calculation completed.
.Delivered  13 WARNINGs and  15 COMMENTs to log file.

External calculated distance:
distance  4.4757069305393635