.Version 8.11.13 of ABINIT

 ABINIT is a project of the Universite Catholique de Louvain,
 Corning Inc. and other collaborators, see ~abinit/doc/developers/contributors.txt .
 acknowledgments of the ABINIT effort.

.Starting date : Tue 14 Jan 2020.
- ( at 17h09 )

- input  file    -> opt.in
- output file    -> opt.out
- root for input  files -> opti
- root for output files -> opto

 Symmetries : space group Im m a (# 74); Bravais oI (body-center ortho.)
     intxc =       0    ionmov =       2      iscf =       7    lmnmax =       6
     lnmax =       6     mgfft =      32  mpssoang =       3    mqgrid =    3001
     natom =       2  nloc_mem =       1    nspden =       1   nspinor =       1
    nsppol =       1      nsym =       8    n1xccc =    2501    ntypat =       1
    occopt =       1   xclevel =       2
-    mband =           4        mffmem =           1         mkmem =           3
       mpw =        1300          nfft =       32768          nkpt =          40
  Rough estimation (10% accuracy) of disk space for files :

------------- Echo of variables that govern the present computation ------------
-
- outvars: echo of selected default values
-   iomode0 =  0 , fftalg0 =312 , wfoptalg0 =  0
-
- outvars: echo of global parameters not present in the input file
-  max_nthreads =    0
-
 -outvars: echo values of preprocessed input variables --------
            acell      1.1338356797E+01  1.1338356797E+01  1.1338356797E+01 Bohr
              amu      2.80855000E+01
          dilatmx      1.05000000E+00
             ecut      1.60000000E+01 Hartree
           ecutsm      5.00000000E-01 Hartree
-          fftalg         312
           ionmov           2
              ixc          11
              kpt     -1.25000000E-01 -2.50000000E-01  0.00000000E+00
                      -2.50000000E-01 -1.25000000E-01  0.00000000E+00
                      -1.25000000E-01  5.00000000E-01  0.00000000E+00
                      -2.50000000E-01 -3.75000000E-01  0.00000000E+00
                      -1.25000000E-01 -3.75000000E-01  1.25000000E-01
                      -3.75000000E-01 -2.50000000E-01  0.00000000E+00
                      -1.25000000E-01 -2.50000000E-01  2.50000000E-01
                       5.00000000E-01 -1.25000000E-01  0.00000000E+00
                      -3.75000000E-01 -1.25000000E-01  1.25000000E-01
                      -1.25000000E-01  2.50000000E-01  0.00000000E+00
                      -2.50000000E-01  3.75000000E-01  0.00000000E+00
                      -3.75000000E-01  5.00000000E-01  0.00000000E+00
                      -2.50000000E-01  5.00000000E-01  1.25000000E-01
                       5.00000000E-01 -3.75000000E-01  0.00000000E+00
                      -2.50000000E-01 -3.75000000E-01  2.50000000E-01
                       3.75000000E-01 -2.50000000E-01  0.00000000E+00
                       5.00000000E-01 -2.50000000E-01  1.25000000E-01
                       2.50000000E-01 -1.25000000E-01  0.00000000E+00
                       3.75000000E-01 -1.25000000E-01  1.25000000E-01
                       5.00000000E-01 -1.25000000E-01  2.50000000E-01
                      -1.25000000E-01  0.00000000E+00  0.00000000E+00
                       3.75000000E-01 -3.75000000E-01  1.25000000E-01
                       2.50000000E-01 -2.50000000E-01  1.25000000E-01
                       3.75000000E-01 -2.50000000E-01  2.50000000E-01
                       0.00000000E+00 -1.25000000E-01  0.00000000E+00
                       1.25000000E-01 -1.25000000E-01  1.25000000E-01
                       2.50000000E-01 -1.25000000E-01  2.50000000E-01
                       3.75000000E-01 -1.25000000E-01  3.75000000E-01
                      -3.75000000E-01  0.00000000E+00  0.00000000E+00
                      -2.50000000E-01  0.00000000E+00  1.25000000E-01
                       2.50000000E-01  5.00000000E-01  1.25000000E-01
                       0.00000000E+00 -3.75000000E-01  0.00000000E+00
                       1.25000000E-01 -3.75000000E-01  1.25000000E-01
                       2.50000000E-01 -3.75000000E-01  2.50000000E-01
                      -2.50000000E-01 -3.75000000E-01 -2.50000000E-01
                       5.00000000E-01  0.00000000E+00  1.25000000E-01
                      -3.75000000E-01  0.00000000E+00  2.50000000E-01
                       2.50000000E-01  0.00000000E+00  1.25000000E-01
                       3.75000000E-01  0.00000000E+00  2.50000000E-01
                       5.00000000E-01  0.00000000E+00  3.75000000E-01
         kptrlatt        4   -4    4     -4    4    4     -4   -4    4
          kptrlen      4.53534272E+01
P           mkmem           3
            natom           2
            nband           4
            ngfft          32      32      32
             nkpt          40
             nsym           8
            ntime         100
           ntypat           1
              occ      2.000000  2.000000  2.000000  2.000000
          optcell           2
            rprim      5.0000000000E-01  5.0000000000E-01  0.0000000000E+00
                       0.0000000000E+00  5.0000000000E-01  5.0000000000E-01
                       5.0000000000E-01  0.0000000000E+00  5.0000000000E-01
           shiftk      5.00000000E-01  5.00000000E-01  5.00000000E-01
          spgroup          74
           symrel      1  0  0   0  1  0   0  0  1      -1  0  0   0 -1  0   0  0 -1
                       0 -1  1   0 -1  0   1 -1  0       0  1 -1   0  1  0  -1  1  0
                       0  0  1   0  1  0   1  0  0       0  0 -1   0 -1  0  -1  0  0
                       1 -1  0   0 -1  0   0 -1  1      -1  1  0   0  1  0   0  1 -1
            tnons      0.0000000  0.0000000  0.0000000     0.2400000  0.2600000  0.2400000
                       0.0000000  0.0000000  0.0000000     0.2400000  0.2600000  0.2400000
                       0.0000000  0.0000000  0.0000000     0.2400000  0.2600000  0.2400000
                       0.0000000  0.0000000  0.0000000     0.2400000  0.2600000  0.2400000
           tolmxf      1.00000000E-09
           tolvrs      1.00000000E-16
            typat      1  1
              wtk        0.03125    0.03125    0.03125    0.03125    0.03125    0.03125
                         0.03125    0.03125    0.03125    0.03125    0.03125    0.03125
                         0.03125    0.03125    0.03125    0.03125    0.03125    0.03125
                         0.03125    0.03125    0.01563    0.03125    0.03125    0.03125
                         0.01563    0.01563    0.01563    0.01563    0.01563    0.01563
                         0.03125    0.01563    0.01563    0.01563    0.01563    0.01563
                         0.01563    0.01563    0.01563    0.01563
           xangst      0.0000000000E+00  0.0000000000E+00  0.0000000000E+00
                       1.4400000000E+00  1.5000000000E+00  1.5000000000E+00
            xcart      0.0000000000E+00  0.0000000000E+00  0.0000000000E+00
                       2.7212056314E+00  2.8345891993E+00  2.8345891993E+00
             xred      0.0000000000E+00  0.0000000000E+00  0.0000000000E+00
                       2.4000000000E-01  2.6000000000E-01  2.4000000000E-01
            znucl       14.00000

 chkinp: Checking input parameters for consistency.

 chkinp: WARNING -
   Chksymbreak=1 . Found potentially symmetry-breaking value of tnons,
   which is neither a rational fraction in 1/8th nor in 1/12th :
   for the symmetry number    2
   symrel is  -1  0  0  0 -1  0  0  0 -1
   tnons is     2.400000E-01    2.600000E-01    2.400000E-01
   Please, read the description of the input variable chksymbreak,
   then, if you feel confident, you might switch it to zero, or consult with the forum.

[...]

 chkinp: WARNING -
   Chksymbreak=1 . Found potentially symmetry-breaking value of tnons,
   which is neither a rational fraction in 1/8th nor in 1/12th :
   for the symmetry number    8
   symrel is  -1  1  0  0  1  0  0  1 -1
   tnons is     2.400000E-01    2.600000E-01    2.400000E-01
   Please, read the description of the input variable chksymbreak,
   then, if you feel confident, you might switch it to zero, or consult with the forum.

== DATASET  1 ==================================================================
-   nproc =   14

 Real(R)+Recip(G) space primitive vectors, cartesian coordinates (Bohr,Bohr^-1):
 R(1)=  5.6691784  5.6691784  0.0000000  G(1)=  0.0881962  0.0881962 -0.0881962
 R(2)=  0.0000000  5.6691784  5.6691784  G(2)= -0.0881962  0.0881962  0.0881962
 R(3)=  5.6691784  0.0000000  5.6691784  G(3)=  0.0881962 -0.0881962  0.0881962
 Unit cell volume ucvol=  3.6441007E+02 bohr^3
 Angles (23,13,12)=  6.00000000E+01  6.00000000E+01  6.00000000E+01 degrees

 getcut: wavevector=  0.0000  0.0000  0.0000  ngfft=  32  32  32
         ecut(hartree)=     17.640   => boxcut(ratio)=   2.11106

--- Pseudopotential description ------------------------------------------------
- pspini: atom type   1  psp file is /CECI/home/ucl/naps/jovbever/.PsP/Si/Si.psp8
- pspatm: opening atomic psp file    /CECI/home/ucl/naps/jovbever/.PsP/Si/Si.psp8
- Si    ONCVPSP-3.2.3.1  r_core=   1.60303   1.72197   1.91712
- 14.00000   4.00000    170510                znucl, zion, pspdat
    8   11    2    4       600   0.00000      pspcod,pspxc,lmax,lloc,mmax,r2well
    5.99000000000000    4.00000000000000    0.00000000000000   rchrg,fchrg,qchrg
     nproj     2     2     2
     extension_switch     1
  pspatm : epsatm=    9.34321699
         --- l  ekb(1:nproj) -->
             0    5.168965    0.829883
             1    2.571282    0.578307
             2   -2.427311   -0.488097
 pspatm: atomic psp has been read  and splines computed

   1.49491472E+02                                ecore*ucvol(ha*bohr**3)

_setup2: Arith. and geom. avg. npw (full set) are    1288.813    1288.795

=== [ionmov= 2] Broyden-Fletcher-Goldfard-Shanno method (forces)

--- Iteration: (  1/100) Internal Cycle: (1/1)

---SELF-CONSISTENT-FIELD CONVERGENCE--------------------------------------------

     iter   Etot(hartree)      deltaE(h)  residm     vres2
 ETOT  1  -8.4312522707124    -8.431E+00 2.347E-02 2.008E+00
 ETOT  2  -8.4363524875023    -5.100E-03 9.239E-06 6.714E-02
 ETOT  3  -8.4363653631619    -1.288E-05 7.954E-07 1.743E-03
 ETOT  4  -8.4363655374400    -1.743E-07 4.699E-08 1.573E-04
 ETOT  5  -8.4363655514997    -1.406E-08 2.768E-09 5.129E-06
 ETOT  6  -8.4363655523789    -8.791E-10 2.551E-10 7.796E-08
 ETOT  7  -8.4363655523961    -1.724E-11 1.196E-11 1.014E-09
 ETOT  8  -8.4363655523969    -7.940E-13 1.196E-12 5.919E-12
 ETOT  9  -8.4363655523969    -3.908E-14 6.875E-14 8.340E-14
 ETOT 10  -8.4363655523969     3.553E-14 7.260E-15 2.728E-15
 ETOT 11  -8.4363655523969     7.105E-15 3.356E-16 3.378E-16
 ETOT 12  -8.4363655523969    -5.507E-14 3.706E-17 1.220E-17

 At SCF step   12       vres2   =  1.22E-17 < tolvrs=  1.00E-16 =>converged.

 Cartesian components of stress tensor (hartree/bohr^3)
  sigma(1 1)=  4.43242720E-04  sigma(3 2)= -4.20952680E-06
  sigma(2 2)=  4.41863099E-04  sigma(3 1)=  0.00000000E+00
  sigma(3 3)=  4.41863099E-04  sigma(2 1)=  0.00000000E+00

 Integrated electronic density in atomic spheres:
 Atom  Sphere_radius  Integrated_density
    1        2.00000          1.60281656
    2        2.00000          1.58416427

---OUTPUT-----------------------------------------------------------------------

 Cartesian coordinates (xcart) [bohr]
  0.00000000000000E+00  0.00000000000000E+00  0.00000000000000E+00
  2.72120563135533E+00  2.83458919932846E+00  2.83458919932846E+00
 Reduced coordinates (xred)
  0.00000000000000E+00  0.00000000000000E+00  0.00000000000000E+00
  2.40000000000000E-01  2.60000000000000E-01  2.40000000000000E-01
 Cartesian forces (fcart) [Ha/bohr]; max,rms= 8.72391E-03 5.03675E-03 (free atoms)
 -8.72391107592695E-03  0.00000000000000E+00  0.00000000000000E+00
  8.72391107592695E-03  0.00000000000000E+00  0.00000000000000E+00
 Reduced forces (fred)
  4.94574082234490E-02  0.00000000000000E+00  4.94574082234490E-02
 -4.94574082234490E-02  0.00000000000000E+00 -4.94574082234490E-02
 Scale of Primitive Cell (acell) [bohr]
  1.13383567973139E+01  1.13383567973139E+01  1.13383567973139E+01
 Real space primitive translations (rprimd) [bohr]
  5.66917839865693E+00  5.66917839865693E+00  0.00000000000000E+00
  0.00000000000000E+00  5.66917839865693E+00  5.66917839865693E+00
  5.66917839865693E+00  0.00000000000000E+00  5.66917839865693E+00
 Unitary Cell Volume (ucvol) [Bohr^3]=  3.64410067486860E+02
 Angles (23,13,12)= [degrees]
  6.00000000000000E+01  6.00000000000000E+01  6.00000000000000E+01
 Lengths [Bohr]
  8.01742897889321E+00  8.01742897889321E+00  8.01742897889321E+00
 Stress tensor in cartesian coordinates (strten) [Ha/bohr^3]
  4.43242719692686E-04  0.00000000000000E+00  0.00000000000000E+00
  0.00000000000000E+00  4.41863098705290E-04 -4.20952679838695E-06
  0.00000000000000E+00 -4.20952679838695E-06  4.41863098705290E-04
 Total energy (etotal) [Ha]= -8.43636555239695E+00

[...]

 Difference of energy with previous step (new-old):
           Absolute (Ha)=-6.30841E-03
           Relative     =-7.47484E-04

[...]

 Difference of energy with previous step (new-old):
           Absolute (Ha)=-4.61853E-14
           Relative     =-5.45768E-15

--- Iteration: ( 18/100) Internal Cycle: (1/1)

---SELF-CONSISTENT-FIELD CONVERGENCE--------------------------------------------

     iter   Etot(hartree)      deltaE(h)  residm     vres2
 ETOT  1  -8.4624366661551    -8.462E+00 1.454E-19 2.593E-14
 ETOT  2  -8.4624366661552    -1.776E-14 5.729E-23 2.703E-16
 ETOT  3  -8.4624366661551     1.243E-14 5.565E-22 2.428E-17

 At SCF step    3       vres2   =  2.43E-17 < tolvrs=  1.00E-16 =>converged.

[...]

 Integrated electronic density in atomic spheres:
 Atom  Sphere_radius  Integrated_density
    1        2.00000          1.76609669
    2        2.00000          1.76609669

---OUTPUT-----------------------------------------------------------------------

 Cartesian coordinates (xcart) [bohr]
 -5.16729064036471E-02  1.66936013111585E-16  1.66533453693773E-16
  2.53197240423914E+00  2.58364530943241E+00  2.58364530943241E+00
 Reduced coordinates (xred)
 -5.00000001923068E-03  5.00000001923071E-03 -5.00000001923068E-03
  2.45000000019231E-01  2.54999999980769E-01  2.45000000019231E-01
 Cartesian forces (fcart) [Ha/bohr]; max,rms= 2.94222E-11 1.69869E-11 (free atoms)
  2.94221507652689E-11  1.61558713389263E-27 -1.61558713389263E-27
 -2.94221507652689E-11 -1.61558713389263E-27  1.61558713389263E-27
 Reduced forces (fred)
 -1.52032803684034E-10  0.00000000000000E+00 -1.52032803684034E-10
  1.52032803684034E-10  0.00000000000000E+00  1.52032803684034E-10
 Scale of Primitive Cell (acell) [bohr]
  7.30765247533685E+00  7.30765247392188E+00  7.30765247533685E+00
 Real space primitive translations (rprimd) [bohr]
  5.16729062049061E+00  5.16729061924009E+00 -3.75277768007484E-10
  0.00000000000000E+00  5.16729061886481E+00  5.16729061886481E+00
  5.16729062049061E+00 -3.75277665852310E-10  5.16729061924009E+00
 Unitary Cell Volume (ucvol) [Bohr^3]=  2.75942541132523E+02
 Angles (23,13,12)= [degrees]
  6.00000000064052E+01  5.99999999967994E+01  6.00000000064052E+01
 Lengths [Bohr]
  7.30765247533685E+00  7.30765247392188E+00  7.30765247533685E+00
 Stress tensor in cartesian coordinates (strten) [Ha/bohr^3]
 -1.37918582804319E-12  0.00000000000000E+00  0.00000000000000E+00
  0.00000000000000E+00  1.88387933724998E-13 -4.87316567307494E-13
  0.00000000000000E+00 -4.87316567307494E-13  1.88387933724998E-13
 Total energy (etotal) [Ha]= -8.46243666615514E+00

 Difference of energy with previous step (new-old):
           Absolute (Ha)= 1.95399E-14
           Relative     = 2.30902E-15

 At Broyd/MD step  18, gradients are converged :
  max grad (force/stress) = 1.3792E-10 < tolmxf= 1.0000E-09 ha/bohr (free atoms)

 ----iterations are completed or convergence reached----

 Mean square residual over all n,k,spin=   25.959E-23; max=  55.651E-23
 reduced coordinates (array xred) for    2 atoms
      -0.005000000019      0.005000000019     -0.005000000019
       0.245000000019      0.254999999981      0.245000000019
 rms dE/dt=  1.2413E-10; max dE/dt=  1.5203E-10; dE/dt below (all hartree)
    1      -0.000000000152      0.000000000000     -0.000000000152
    2       0.000000000152     -0.000000000000      0.000000000152

 cartesian coordinates (angstrom) at end:
    1     -0.02734412437041     0.00000000000000     0.00000000000000
    2      1.33986208910218     1.36720621283209     1.36720621283209

 cartesian forces (hartree/bohr) at end:
    1      0.00000000002942     0.00000000000000    -0.00000000000000
    2     -0.00000000002942    -0.00000000000000     0.00000000000000
 frms,max,avg= 1.6986887E-11 2.9422151E-11   0.000E+00  0.000E+00  0.000E+00 h/b

 cartesian forces (eV/Angstrom) at end:
    1      0.00000000151295     0.00000000000000    -0.00000000000000
    2     -0.00000000151295    -0.00000000000000     0.00000000000000
 frms,max,avg= 8.7350076E-10 1.5129477E-09   0.000E+00  0.000E+00  0.000E+00 e/A
 length scales=  7.307652475337  7.307652473922  7.307652475337 bohr
              =  3.867043138245  3.867043137496  3.867043138245 angstroms
 prteigrs : about to open file opto_EIG
 Fermi (or HOMO) energy (hartree) =   0.14282   Average Vxc (hartree)=  -0.33848
 Eigenvalues (hartree) for nkpt=  40  k points:
 kpt#   1, nband=  4, wtk=  0.03125, kpt= -0.1250 -0.2500  0.0000 (reduced coord)
  -0.25443    0.03516    0.10574    0.10806
 prteigrs : prtvol=0 or 1, do not print more k-points.

 Components of total free energy (in Hartree) :

    Kinetic energy  =  3.04300279826461E+00
    Hartree energy  =  5.57069257045481E-01
    XC energy       = -3.08031003040008E+00
    Ewald energy    = -8.33984142273690E+00
    PspCore energy  =  5.41748551058347E-01
    Loc. psp. energy= -2.33211646171571E+00
    NL   psp  energy=  1.14801064232911E+00
    >>>>>>>>> Etotal= -8.46243666615514E+00

 Other information on the energy :
    Total energy(eV)= -2.30274612513686E+02 ; Band energy (Ha)=  -2.4607778358E-01

 rms coord change=  5.0000E-03   atom, delta coord (reduced):
     1       -0.005000000019      0.005000000019     -0.005000000019
     2        0.005000000019     -0.005000000019      0.005000000019

 Cartesian components of stress tensor (hartree/bohr^3)
  sigma(1 1)= -1.37918583E-12  sigma(3 2)= -4.87316567E-13
  sigma(2 2)=  1.88387934E-13  sigma(3 1)=  0.00000000E+00
  sigma(3 3)=  1.88387934E-13  sigma(2 1)=  0.00000000E+00

-Cartesian components of stress tensor (GPa)         [Pressure=  9.8306E-09 GPa]
- sigma(1 1)= -4.05770411E-08  sigma(3 2)= -1.43373460E-08
- sigma(2 2)=  5.54256343E-09  sigma(3 1)=  0.00000000E+00
- sigma(3 3)=  5.54256343E-09  sigma(2 1)=  0.00000000E+00

== END DATASET(S) ==============================================================

 -outvars: echo values of variables after computation  --------
            acell      7.3076524753E+00  7.3076524739E+00  7.3076524753E+00 Bohr
              amu      2.80855000E+01
          dilatmx      1.05000000E+00
             ecut      1.60000000E+01 Hartree
           ecutsm      5.00000000E-01 Hartree
           etotal     -8.4624366662E+00
            fcart      2.9422150765E-11  1.6155871339E-27 -1.6155871339E-27
                      -2.9422150765E-11 -1.6155871339E-27  1.6155871339E-27
-          fftalg         312
           ionmov           2
              ixc          11
              kpt     -1.25000000E-01 -2.50000000E-01  0.00000000E+00
                      -2.50000000E-01 -1.25000000E-01  0.00000000E+00
                      -1.25000000E-01  5.00000000E-01  0.00000000E+00
                      -2.50000000E-01 -3.75000000E-01  0.00000000E+00
                      -1.25000000E-01 -3.75000000E-01  1.25000000E-01
                      -3.75000000E-01 -2.50000000E-01  0.00000000E+00
                      -1.25000000E-01 -2.50000000E-01  2.50000000E-01
                       5.00000000E-01 -1.25000000E-01  0.00000000E+00
                      -3.75000000E-01 -1.25000000E-01  1.25000000E-01
                      -1.25000000E-01  2.50000000E-01  0.00000000E+00
                      -2.50000000E-01  3.75000000E-01  0.00000000E+00
                      -3.75000000E-01  5.00000000E-01  0.00000000E+00
                      -2.50000000E-01  5.00000000E-01  1.25000000E-01
                       5.00000000E-01 -3.75000000E-01  0.00000000E+00
                      -2.50000000E-01 -3.75000000E-01  2.50000000E-01
                       3.75000000E-01 -2.50000000E-01  0.00000000E+00
                       5.00000000E-01 -2.50000000E-01  1.25000000E-01
                       2.50000000E-01 -1.25000000E-01  0.00000000E+00
                       3.75000000E-01 -1.25000000E-01  1.25000000E-01
                       5.00000000E-01 -1.25000000E-01  2.50000000E-01
                      -1.25000000E-01  0.00000000E+00  0.00000000E+00
                       3.75000000E-01 -3.75000000E-01  1.25000000E-01
                       2.50000000E-01 -2.50000000E-01  1.25000000E-01
                       3.75000000E-01 -2.50000000E-01  2.50000000E-01
                       0.00000000E+00 -1.25000000E-01  0.00000000E+00
                       1.25000000E-01 -1.25000000E-01  1.25000000E-01
                       2.50000000E-01 -1.25000000E-01  2.50000000E-01
                       3.75000000E-01 -1.25000000E-01  3.75000000E-01
                      -3.75000000E-01  0.00000000E+00  0.00000000E+00
                      -2.50000000E-01  0.00000000E+00  1.25000000E-01
                       2.50000000E-01  5.00000000E-01  1.25000000E-01
                       0.00000000E+00 -3.75000000E-01  0.00000000E+00
                       1.25000000E-01 -3.75000000E-01  1.25000000E-01
                       2.50000000E-01 -3.75000000E-01  2.50000000E-01
                      -2.50000000E-01 -3.75000000E-01 -2.50000000E-01
                       5.00000000E-01  0.00000000E+00  1.25000000E-01
                      -3.75000000E-01  0.00000000E+00  2.50000000E-01
                       2.50000000E-01  0.00000000E+00  1.25000000E-01
                       3.75000000E-01  0.00000000E+00  2.50000000E-01
                       5.00000000E-01  0.00000000E+00  3.75000000E-01
         kptrlatt        4   -4    4     -4    4    4     -4   -4    4
          kptrlen      4.53534272E+01
P           mkmem           3
            natom           2
            nband           4
            ngfft          32      32      32
             nkpt          40
             nsym           8
            ntime         100
           ntypat           1
              occ      2.000000  2.000000  2.000000  2.000000
          optcell           2
            rprim      7.0710678127E-01  7.0710678110E-01 -5.1354079751E-11
                       0.0000000000E+00  7.0710678119E-01  7.0710678119E-01
                       7.0710678127E-01 -5.1354065771E-11  7.0710678110E-01
           shiftk      5.00000000E-01  5.00000000E-01  5.00000000E-01
          spgroup          74
           strten     -1.3791858280E-12  1.8838793372E-13  1.8838793372E-13
                      -4.8731656731E-13  0.0000000000E+00  0.0000000000E+00
           symrel      1  0  0   0  1  0   0  0  1      -1  0  0   0 -1  0   0  0 -1
                       0 -1  1   0 -1  0   1 -1  0       0  1 -1   0  1  0  -1  1  0
                       0  0  1   0  1  0   1  0  0       0  0 -1   0 -1  0  -1  0  0
                       1 -1  0   0 -1  0   0 -1  1      -1  1  0   0  1  0   0  1 -1
            tnons      0.0000000  0.0000000  0.0000000     0.2400000  0.2600000  0.2400000
                       0.0000000  0.0000000  0.0000000     0.2400000  0.2600000  0.2400000
                       0.0000000  0.0000000  0.0000000     0.2400000  0.2600000  0.2400000
                       0.0000000  0.0000000  0.0000000     0.2400000  0.2600000  0.2400000
           tolmxf      1.00000000E-09
           tolvrs      1.00000000E-16
            typat      1  1
              wtk        0.03125    0.03125    0.03125    0.03125    0.03125    0.03125
                         0.03125    0.03125    0.03125    0.03125    0.03125    0.03125
                         0.03125    0.03125    0.03125    0.03125    0.03125    0.03125
                         0.03125    0.03125    0.01563    0.03125    0.03125    0.03125
                         0.01563    0.01563    0.01563    0.01563    0.01563    0.01563
                         0.03125    0.01563    0.01563    0.01563    0.01563    0.01563
                         0.01563    0.01563    0.01563    0.01563
           xangst     -2.7344124370E-02  8.8338733432E-17  8.8125708163E-17
                       1.3398620891E+00  1.3672062128E+00  1.3672062128E+00
            xcart     -5.1672906404E-02  1.6693601311E-16  1.6653345369E-16
                       2.5319724042E+00  2.5836453094E+00  2.5836453094E+00
             xred     -5.0000000192E-03  5.0000000192E-03 -5.0000000192E-03
                       2.4500000002E-01  2.5499999998E-01  2.4500000002E-01
            znucl       14.00000

- Timing analysis has been suppressed with timopt=0

 Suggested references for the acknowledgment of ABINIT usage.

 Calculation completed.
.Delivered  12 WARNINGs and  18 COMMENTs to log file.