.Version 8.11.13 of ABINIT

 ABINIT is a project of the Universite Catholique de Louvain,
 Corning Inc. and other collaborators, see ~abinit/doc/developers/contributors.txt .
 acknowledgments of the ABINIT effort.

.Starting date : Tue 14 Jan 2020.
- ( at 16h55 )

- input  file    -> opt.in
- output file    -> opt.out
- root for input  files -> opti
- root for output files -> opto

 Symmetries : space group Im m a (# 74); Bravais oI (body-center ortho.)
     intxc =       0    ionmov =       2      iscf =       7    lmnmax =       6
     lnmax =       6     mgfft =      32  mpssoang =       3    mqgrid =    3001
     natom =       2  nloc_mem =       1    nspden =       1   nspinor =       1
    nsppol =       1      nsym =       8    n1xccc =    2501    ntypat =       1
    occopt =       1   xclevel =       2
-    mband =           4        mffmem =           1         mkmem =           3
       mpw =        1300          nfft =       32768          nkpt =          40
  Rough estimation (10% accuracy) of disk space for files :

------------- Echo of variables that govern the present computation ------------
-
- outvars: echo of selected default values
-   iomode0 =  0 , fftalg0 =312 , wfoptalg0 =  0
-
- outvars: echo of global parameters not present in the input file
-  max_nthreads =    0
-
 -outvars: echo values of preprocessed input variables --------
            acell      1.1338356797E+01  1.1338356797E+01  1.1338356797E+01 Bohr
              amu      2.80855000E+01
          dilatmx      1.05000000E+00
             ecut      1.60000000E+01 Hartree
           ecutsm      5.00000000E-01 Hartree
-          fftalg         312
           ionmov           2
              ixc          11
              kpt     -1.25000000E-01 -2.50000000E-01  0.00000000E+00
                      -2.50000000E-01 -1.25000000E-01  0.00000000E+00
                      -1.25000000E-01  5.00000000E-01  0.00000000E+00
                      -2.50000000E-01 -3.75000000E-01  0.00000000E+00
                      -1.25000000E-01 -3.75000000E-01  1.25000000E-01
                      -3.75000000E-01 -2.50000000E-01  0.00000000E+00
                      -1.25000000E-01 -2.50000000E-01  2.50000000E-01
                       5.00000000E-01 -1.25000000E-01  0.00000000E+00
                      -3.75000000E-01 -1.25000000E-01  1.25000000E-01
                      -1.25000000E-01  2.50000000E-01  0.00000000E+00
                      -2.50000000E-01  3.75000000E-01  0.00000000E+00
                      -3.75000000E-01  5.00000000E-01  0.00000000E+00
                      -2.50000000E-01  5.00000000E-01  1.25000000E-01
                       5.00000000E-01 -3.75000000E-01  0.00000000E+00
                      -2.50000000E-01 -3.75000000E-01  2.50000000E-01
                       3.75000000E-01 -2.50000000E-01  0.00000000E+00
                       5.00000000E-01 -2.50000000E-01  1.25000000E-01
                       2.50000000E-01 -1.25000000E-01  0.00000000E+00
                       3.75000000E-01 -1.25000000E-01  1.25000000E-01
                       5.00000000E-01 -1.25000000E-01  2.50000000E-01
                      -1.25000000E-01  0.00000000E+00  0.00000000E+00
                       3.75000000E-01 -3.75000000E-01  1.25000000E-01
                       2.50000000E-01 -2.50000000E-01  1.25000000E-01
                       3.75000000E-01 -2.50000000E-01  2.50000000E-01
                       0.00000000E+00 -1.25000000E-01  0.00000000E+00
                       1.25000000E-01 -1.25000000E-01  1.25000000E-01
                       2.50000000E-01 -1.25000000E-01  2.50000000E-01
                       3.75000000E-01 -1.25000000E-01  3.75000000E-01
                      -3.75000000E-01  0.00000000E+00  0.00000000E+00
                      -2.50000000E-01  0.00000000E+00  1.25000000E-01
                       2.50000000E-01  5.00000000E-01  1.25000000E-01
                       0.00000000E+00 -3.75000000E-01  0.00000000E+00
                       1.25000000E-01 -3.75000000E-01  1.25000000E-01
                       2.50000000E-01 -3.75000000E-01  2.50000000E-01
                      -2.50000000E-01 -3.75000000E-01 -2.50000000E-01
                       5.00000000E-01  0.00000000E+00  1.25000000E-01
                      -3.75000000E-01  0.00000000E+00  2.50000000E-01
                       2.50000000E-01  0.00000000E+00  1.25000000E-01
                       3.75000000E-01  0.00000000E+00  2.50000000E-01
                       5.00000000E-01  0.00000000E+00  3.75000000E-01
         kptrlatt        4   -4    4     -4    4    4     -4   -4    4
          kptrlen      4.53534272E+01
P           mkmem           3
            natom           2
            nband           4
            ngfft          32      32      32
             nkpt          40
             nsym           8
            ntime          15
           ntypat           1
              occ      2.000000  2.000000  2.000000  2.000000
          optcell           2
            rprim      5.0000000000E-01  5.0000000000E-01  0.0000000000E+00
                       0.0000000000E+00  5.0000000000E-01  5.0000000000E-01
                       5.0000000000E-01  0.0000000000E+00  5.0000000000E-01
           shiftk      5.00000000E-01  5.00000000E-01  5.00000000E-01
          spgroup          74
           symrel      1  0  0   0  1  0   0  0  1      -1  0  0   0 -1  0   0  0 -1
                       0 -1  1   0 -1  0   1 -1  0       0  1 -1   0  1  0  -1  1  0
                       0  0  1   0  1  0   1  0  0       0  0 -1   0 -1  0  -1  0  0
                       1 -1  0   0 -1  0   0 -1  1      -1  1  0   0  1  0   0  1 -1
            tnons      0.0000000  0.0000000  0.0000000     0.2400000  0.2600000  0.2400000
                       0.0000000  0.0000000  0.0000000     0.2400000  0.2600000  0.2400000
                       0.0000000  0.0000000  0.0000000     0.2400000  0.2600000  0.2400000
                       0.0000000  0.0000000  0.0000000     0.2400000  0.2600000  0.2400000
           tolmxf      1.00000000E-08
           tolvrs      1.00000000E-10
            typat      1  1
              wtk        0.03125    0.03125    0.03125    0.03125    0.03125    0.03125
                         0.03125    0.03125    0.03125    0.03125    0.03125    0.03125
                         0.03125    0.03125    0.03125    0.03125    0.03125    0.03125
                         0.03125    0.03125    0.01563    0.03125    0.03125    0.03125
                         0.01563    0.01563    0.01563    0.01563    0.01563    0.01563
                         0.03125    0.01563    0.01563    0.01563    0.01563    0.01563
                         0.01563    0.01563    0.01563    0.01563
           xangst      0.0000000000E+00  0.0000000000E+00  0.0000000000E+00
                       1.4400000000E+00  1.5000000000E+00  1.5000000000E+00
            xcart      0.0000000000E+00  0.0000000000E+00  0.0000000000E+00
                       2.7212056314E+00  2.8345891993E+00  2.8345891993E+00
             xred      0.0000000000E+00  0.0000000000E+00  0.0000000000E+00
                       2.4000000000E-01  2.6000000000E-01  2.4000000000E-01
            znucl       14.00000

 chkinp: Checking input parameters for consistency.

 chkinp: WARNING -
   Chksymbreak=1 . Found potentially symmetry-breaking value of tnons,
   which is neither a rational fraction in 1/8th nor in 1/12th :
   for the symmetry number    2
   symrel is  -1  0  0  0 -1  0  0  0 -1
   tnons is     2.400000E-01    2.600000E-01    2.400000E-01
   Please, read the description of the input variable chksymbreak,
   then, if you feel confident, you might switch it to zero, or consult with the forum.

[...]

 chkinp: WARNING -
   Chksymbreak=1 . Found potentially symmetry-breaking value of tnons,
   which is neither a rational fraction in 1/8th nor in 1/12th :
   for the symmetry number    8
   symrel is  -1  1  0  0  1  0  0  1 -1
   tnons is     2.400000E-01    2.600000E-01    2.400000E-01
   Please, read the description of the input variable chksymbreak,
   then, if you feel confident, you might switch it to zero, or consult with the forum.

== DATASET  1 ==================================================================
-   nproc =   14

 Real(R)+Recip(G) space primitive vectors, cartesian coordinates (Bohr,Bohr^-1):
 R(1)=  5.6691784  5.6691784  0.0000000  G(1)=  0.0881962  0.0881962 -0.0881962
 R(2)=  0.0000000  5.6691784  5.6691784  G(2)= -0.0881962  0.0881962  0.0881962
 R(3)=  5.6691784  0.0000000  5.6691784  G(3)=  0.0881962 -0.0881962  0.0881962
 Unit cell volume ucvol=  3.6441007E+02 bohr^3
 Angles (23,13,12)=  6.00000000E+01  6.00000000E+01  6.00000000E+01 degrees

 getcut: wavevector=  0.0000  0.0000  0.0000  ngfft=  32  32  32
         ecut(hartree)=     17.640   => boxcut(ratio)=   2.11106

--- Pseudopotential description ------------------------------------------------
- pspini: atom type   1  psp file is /CECI/home/ucl/naps/jovbever/.PsP/Si/Si.psp8
- pspatm: opening atomic psp file    /CECI/home/ucl/naps/jovbever/.PsP/Si/Si.psp8
- Si    ONCVPSP-3.2.3.1  r_core=   1.60303   1.72197   1.91712
- 14.00000   4.00000    170510                znucl, zion, pspdat
    8   11    2    4       600   0.00000      pspcod,pspxc,lmax,lloc,mmax,r2well
    5.99000000000000    4.00000000000000    0.00000000000000   rchrg,fchrg,qchrg
     nproj     2     2     2
     extension_switch     1
  pspatm : epsatm=    9.34321699
         --- l  ekb(1:nproj) -->
             0    5.168965    0.829883
             1    2.571282    0.578307
             2   -2.427311   -0.488097
 pspatm: atomic psp has been read  and splines computed

   1.49491472E+02                                ecore*ucvol(ha*bohr**3)

_setup2: Arith. and geom. avg. npw (full set) are    1288.813    1288.795

=== [ionmov= 2] Broyden-Fletcher-Goldfard-Shanno method (forces)

--- Iteration: ( 1/15) Internal Cycle: (1/1)

---SELF-CONSISTENT-FIELD CONVERGENCE--------------------------------------------

     iter   Etot(hartree)      deltaE(h)  residm     vres2
 ETOT  1  -8.4312522707124    -8.431E+00 2.347E-02 2.008E+00
 ETOT  2  -8.4363524875023    -5.100E-03 9.239E-06 6.714E-02
 ETOT  3  -8.4363653631619    -1.288E-05 7.954E-07 1.743E-03
 ETOT  4  -8.4363655374400    -1.743E-07 4.699E-08 1.573E-04
 ETOT  5  -8.4363655514997    -1.406E-08 2.768E-09 5.129E-06
 ETOT  6  -8.4363655523789    -8.791E-10 2.551E-10 7.796E-08
 ETOT  7  -8.4363655523961    -1.724E-11 1.196E-11 1.014E-09
 ETOT  8  -8.4363655523969    -7.940E-13 1.196E-12 5.919E-12

 At SCF step    8       vres2   =  5.92E-12 < tolvrs=  1.00E-10 =>converged.

 Cartesian components of stress tensor (hartree/bohr^3)
  sigma(1 1)=  4.43242611E-04  sigma(3 2)= -4.20954035E-06
  sigma(2 2)=  4.41863043E-04  sigma(3 1)=  0.00000000E+00
  sigma(3 3)=  4.41863043E-04  sigma(2 1)=  0.00000000E+00

 Integrated electronic density in atomic spheres:
 Atom  Sphere_radius  Integrated_density
    1        2.00000          1.60281657
    2        2.00000          1.58416429

---OUTPUT-----------------------------------------------------------------------

 Cartesian coordinates (xcart) [bohr]
  0.00000000000000E+00  0.00000000000000E+00  0.00000000000000E+00
  2.72120563135533E+00  2.83458919932846E+00  2.83458919932846E+00
 Reduced coordinates (xred)
  0.00000000000000E+00  0.00000000000000E+00  0.00000000000000E+00
  2.40000000000000E-01  2.60000000000000E-01  2.40000000000000E-01
 Cartesian forces (fcart) [Ha/bohr]; max,rms= 8.72391E-03 5.03675E-03 (free atoms)
 -8.72391310710371E-03  0.00000000000000E+00  0.00000000000000E+00
  8.72391310710371E-03  0.00000000000000E+00  0.00000000000000E+00
 Reduced forces (fred)
  4.94574197385524E-02  0.00000000000000E+00  4.94574197385524E-02
 -4.94574197385524E-02  0.00000000000000E+00 -4.94574197385524E-02
 Scale of Primitive Cell (acell) [bohr]
  1.13383567973139E+01  1.13383567973139E+01  1.13383567973139E+01
 Real space primitive translations (rprimd) [bohr]
  5.66917839865693E+00  5.66917839865693E+00  0.00000000000000E+00
  0.00000000000000E+00  5.66917839865693E+00  5.66917839865693E+00
  5.66917839865693E+00  0.00000000000000E+00  5.66917839865693E+00
 Unitary Cell Volume (ucvol) [Bohr^3]=  3.64410067486860E+02
 Angles (23,13,12)= [degrees]
  6.00000000000000E+01  6.00000000000000E+01  6.00000000000000E+01
 Lengths [Bohr]
  8.01742897889321E+00  8.01742897889321E+00  8.01742897889321E+00
 Stress tensor in cartesian coordinates (strten) [Ha/bohr^3]
  4.43242610509017E-04  0.00000000000000E+00  0.00000000000000E+00
  0.00000000000000E+00  4.41863043466731E-04 -4.20954035146802E-06
  0.00000000000000E+00 -4.20954035146802E-06  4.41863043466731E-04
 Total energy (etotal) [Ha]= -8.43636555239690E+00

[...]

 Difference of energy with previous step (new-old):
           Absolute (Ha)=-6.30841E-03
           Relative     =-7.47484E-04

[...]

--- Iteration: ( 9/15) Internal Cycle: (1/1)

[...]

--- Iteration: (10/15) Internal Cycle: (1/1)

[...]

--- Iteration: (15/15) Internal Cycle: (1/1)

---SELF-CONSISTENT-FIELD CONVERGENCE--------------------------------------------

     iter   Etot(hartree)      deltaE(h)  residm     vres2
 ETOT  1  -8.4624366661534    -8.462E+00 3.985E-14 8.259E-09
 ETOT  2  -8.4624366661550    -1.590E-12 2.586E-17 1.610E-10
 ETOT  3  -8.4624366661550    -4.441E-14 2.825E-16 1.352E-11

 At SCF step    3       vres2   =  1.35E-11 < tolvrs=  1.00E-10 =>converged.

[...]

 Integrated electronic density in atomic spheres:
 Atom  Sphere_radius  Integrated_density
    1        2.00000          1.76609711
    2        2.00000          1.76609711

---OUTPUT-----------------------------------------------------------------------

 Cartesian coordinates (xcart) [bohr]
 -5.16728009606944E-02  2.18159245770822E-17  2.42861286636753E-17
  2.53197289304398E+00  2.58364552589197E+00  2.58364552589197E+00
 Reduced coordinates (xred)
 -4.99998861837329E-03  4.99998861837330E-03 -4.99998861837329E-03
  2.44999988618373E-01  2.55000011381626E-01  2.44999988618373E-01
 Cartesian forces (fcart) [Ha/bohr]; max,rms= 4.17461E-08 2.41021E-08 (free atoms)
 -4.17460675835974E-08  3.30872245021211E-24 -3.30872245021211E-24
  4.17460675835974E-08 -3.30872245021211E-24  3.30872245021211E-24
 Reduced forces (fred)
  2.15714115149399E-07  0.00000000000000E+00  2.15714115149399E-07
 -2.15714115149399E-07  0.00000000000000E+00 -2.15714115149399E-07
 Scale of Primitive Cell (acell) [bohr]
  7.30765374970310E+00  7.30765308616199E+00  7.30765374970309E+00
 Real space primitive translations (rprimd) [bohr]
  5.16729185850685E+00  5.16729118344985E+00 -1.31665908906160E-07
  0.00000000000000E+00  5.16729105178394E+00  5.16729105178394E+00
  5.16729185850684E+00 -1.31665908885448E-07  5.16729118344985E+00
 Unitary Cell Volume (ucvol) [Bohr^3]=  2.75942667504433E+02
 Angles (23,13,12)= [degrees]
  6.00000030036676E+01  5.99999973642362E+01  6.00000030036676E+01
 Lengths [Bohr]
  7.30765374970310E+00  7.30765308616199E+00  7.30765374970309E+00
 Stress tensor in cartesian coordinates (strten) [Ha/bohr^3]
  1.55982967861568E-09  0.00000000000000E+00  0.00000000000000E+00
  0.00000000000000E+00  1.13641954700705E-09 -1.89158686110524E-10
  0.00000000000000E+00 -1.89158686110524E-10  1.13641954700705E-09
 Total energy (etotal) [Ha]= -8.46243666615504E+00

 Difference of energy with previous step (new-old):
           Absolute (Ha)=-3.14238E-12
           Relative     =-3.71332E-13

 fconv : WARNING -
  ntime=   15 was not enough Broyd/MD steps to converge gradients:
  max grad (force/stress) = 1.5598E-07 > tolmxf= 1.0000E-08 ha/bohr (free atoms)

 ----iterations are completed or convergence reached----

 Mean square residual over all n,k,spin=   11.616E-17; max=  28.253E-17
 reduced coordinates (array xred) for    2 atoms
      -0.004999988618      0.004999988618     -0.004999988618
       0.244999988618      0.255000011382      0.244999988618
 rms dE/dt=  1.7613E-07; max dE/dt=  2.1571E-07; dE/dt below (all hartree)
    1       0.000000215714      0.000000000000      0.000000215714
    2      -0.000000215714      0.000000000000     -0.000000215714

 cartesian coordinates (angstrom) at end:
    1     -0.02734406857241     0.00000000000000     0.00000000000000
    2      1.33986234776656     1.36720632737755     1.36720632737755

 cartesian forces (hartree/bohr) at end:
    1     -0.00000004174607     0.00000000000000    -0.00000000000000
    2      0.00000004174607    -0.00000000000000     0.00000000000000
 frms,max,avg= 2.4102103E-08 4.1746068E-08   0.000E+00  0.000E+00  0.000E+00 h/b

 cartesian forces (eV/Angstrom) at end:
    1     -0.00000214666893     0.00000000000000    -0.00000000000000
    2      0.00000214666893    -0.00000000000000     0.00000000000000
 frms,max,avg= 1.2393799E-06 2.1466689E-06   0.000E+00  0.000E+00  0.000E+00 e/A
 length scales=  7.307653749703  7.307653086162  7.307653749703 bohr
              =  3.867043812610  3.867043461479  3.867043812610 angstroms
 prteigrs : about to open file opto_EIG
 Fermi (or HOMO) energy (hartree) =   0.14282   Average Vxc (hartree)=  -0.33848
 Eigenvalues (hartree) for nkpt=  40  k points:
 kpt#   1, nband=  4, wtk=  0.03125, kpt= -0.1250 -0.2500  0.0000 (reduced coord)
  -0.25443    0.03516    0.10574    0.10806
 prteigrs : prtvol=0 or 1, do not print more k-points.

 Components of total free energy (in Hartree) :

    Kinetic energy  =  3.04300227325403E+00
    Hartree energy  =  5.57069486948461E-01
    XC energy       = -3.08030979144634E+00
    Ewald energy    = -8.33984014961996E+00
    PspCore energy  =  5.41748302956812E-01
    Loc. psp. energy= -2.33211732637802E+00
    NL   psp  energy=  1.14801053812997E+00
    >>>>>>>>> Etotal= -8.46243666615504E+00

 Other information on the energy :
    Total energy(eV)= -2.30274612513684E+02 ; Band energy (Ha)=  -2.4607853753E-01

 rms coord change=  5.0000E-03   atom, delta coord (reduced):
     1       -0.004999988618      0.004999988618     -0.004999988618
     2        0.004999988618     -0.004999988618      0.004999988618

 Cartesian components of stress tensor (hartree/bohr^3)
  sigma(1 1)=  1.55982968E-09  sigma(3 2)= -1.89158686E-10
  sigma(2 2)=  1.13641955E-09  sigma(3 1)=  0.00000000E+00
  sigma(3 3)=  1.13641955E-09  sigma(2 1)=  0.00000000E+00

-Cartesian components of stress tensor (GPa)         [Pressure= -3.7587E-05 GPa]
- sigma(1 1)=  4.58917658E-05  sigma(3 2)= -5.56523975E-06
- sigma(2 2)=  3.34346118E-05  sigma(3 1)=  0.00000000E+00
- sigma(3 3)=  3.34346118E-05  sigma(2 1)=  0.00000000E+00

== END DATASET(S) ==============================================================

 -outvars: echo values of variables after computation  --------
            acell      7.3076537497E+00  7.3076530862E+00  7.3076537497E+00 Bohr
              amu      2.80855000E+01
          dilatmx      1.05000000E+00
             ecut      1.60000000E+01 Hartree
           ecutsm      5.00000000E-01 Hartree
           etotal     -8.4624366662E+00
            fcart     -4.1746067584E-08  3.3087224502E-24 -3.3087224502E-24
                       4.1746067584E-08 -3.3087224502E-24  3.3087224502E-24
-          fftalg         312
           ionmov           2
              ixc          11
              kpt     -1.25000000E-01 -2.50000000E-01  0.00000000E+00
                      -2.50000000E-01 -1.25000000E-01  0.00000000E+00
                      -1.25000000E-01  5.00000000E-01  0.00000000E+00
                      -2.50000000E-01 -3.75000000E-01  0.00000000E+00
                      -1.25000000E-01 -3.75000000E-01  1.25000000E-01
                      -3.75000000E-01 -2.50000000E-01  0.00000000E+00
                      -1.25000000E-01 -2.50000000E-01  2.50000000E-01
                       5.00000000E-01 -1.25000000E-01  0.00000000E+00
                      -3.75000000E-01 -1.25000000E-01  1.25000000E-01
                      -1.25000000E-01  2.50000000E-01  0.00000000E+00
                      -2.50000000E-01  3.75000000E-01  0.00000000E+00
                      -3.75000000E-01  5.00000000E-01  0.00000000E+00
                      -2.50000000E-01  5.00000000E-01  1.25000000E-01
                       5.00000000E-01 -3.75000000E-01  0.00000000E+00
                      -2.50000000E-01 -3.75000000E-01  2.50000000E-01
                       3.75000000E-01 -2.50000000E-01  0.00000000E+00
                       5.00000000E-01 -2.50000000E-01  1.25000000E-01
                       2.50000000E-01 -1.25000000E-01  0.00000000E+00
                       3.75000000E-01 -1.25000000E-01  1.25000000E-01
                       5.00000000E-01 -1.25000000E-01  2.50000000E-01
                      -1.25000000E-01  0.00000000E+00  0.00000000E+00
                       3.75000000E-01 -3.75000000E-01  1.25000000E-01
                       2.50000000E-01 -2.50000000E-01  1.25000000E-01
                       3.75000000E-01 -2.50000000E-01  2.50000000E-01
                       0.00000000E+00 -1.25000000E-01  0.00000000E+00
                       1.25000000E-01 -1.25000000E-01  1.25000000E-01
                       2.50000000E-01 -1.25000000E-01  2.50000000E-01
                       3.75000000E-01 -1.25000000E-01  3.75000000E-01
                      -3.75000000E-01  0.00000000E+00  0.00000000E+00
                      -2.50000000E-01  0.00000000E+00  1.25000000E-01
                       2.50000000E-01  5.00000000E-01  1.25000000E-01
                       0.00000000E+00 -3.75000000E-01  0.00000000E+00
                       1.25000000E-01 -3.75000000E-01  1.25000000E-01
                       2.50000000E-01 -3.75000000E-01  2.50000000E-01
                      -2.50000000E-01 -3.75000000E-01 -2.50000000E-01
                       5.00000000E-01  0.00000000E+00  1.25000000E-01
                      -3.75000000E-01  0.00000000E+00  2.50000000E-01
                       2.50000000E-01  0.00000000E+00  1.25000000E-01
                       3.75000000E-01  0.00000000E+00  2.50000000E-01
                       5.00000000E-01  0.00000000E+00  3.75000000E-01
         kptrlatt        4   -4    4     -4    4    4     -4   -4    4
          kptrlen      4.53534272E+01
P           mkmem           3
            natom           2
            nband           4
            ngfft          32      32      32
             nkpt          40
             nsym           8
            ntime          15
           ntypat           1
              occ      2.000000  2.000000  2.000000  2.000000
          optcell           2
            rprim      7.0710682737E-01  7.0710673500E-01 -1.8017535233E-08
                       0.0000000000E+00  7.0710678119E-01  7.0710678119E-01
                       7.0710682737E-01 -1.8017535230E-08  7.0710673500E-01
           shiftk      5.00000000E-01  5.00000000E-01  5.00000000E-01
          spgroup          74
           strten      1.5598296786E-09  1.1364195470E-09  1.1364195470E-09
                      -1.8915868611E-10  0.0000000000E+00  0.0000000000E+00
           symrel      1  0  0   0  1  0   0  0  1      -1  0  0   0 -1  0   0  0 -1
                       0 -1  1   0 -1  0   1 -1  0       0  1 -1   0  1  0  -1  1  0
                       0  0  1   0  1  0   1  0  0       0  0 -1   0 -1  0  -1  0  0
                       1 -1  0   0 -1  0   0 -1  1      -1  1  0   0  1  0   0  1 -1
            tnons      0.0000000  0.0000000  0.0000000     0.2400000  0.2600000  0.2400000
                       0.0000000  0.0000000  0.0000000     0.2400000  0.2600000  0.2400000
                       0.0000000  0.0000000  0.0000000     0.2400000  0.2600000  0.2400000
                       0.0000000  0.0000000  0.0000000     0.2400000  0.2600000  0.2400000
           tolmxf      1.00000000E-08
           tolvrs      1.00000000E-10
            typat      1  1
              wtk        0.03125    0.03125    0.03125    0.03125    0.03125    0.03125
                         0.03125    0.03125    0.03125    0.03125    0.03125    0.03125
                         0.03125    0.03125    0.03125    0.03125    0.03125    0.03125
                         0.03125    0.03125    0.01563    0.03125    0.03125    0.03125
                         0.01563    0.01563    0.01563    0.01563    0.01563    0.01563
                         0.03125    0.01563    0.01563    0.01563    0.01563    0.01563
                         0.01563    0.01563    0.01563    0.01563
           xangst     -2.7344068572E-02  1.1544490071E-17  1.2851665774E-17
                       1.3398623478E+00  1.3672063274E+00  1.3672063274E+00
            xcart     -5.1672800961E-02  2.1815924577E-17  2.4286128664E-17
                       2.5319728930E+00  2.5836455259E+00  2.5836455259E+00
             xred     -4.9999886184E-03  4.9999886184E-03 -4.9999886184E-03
                       2.4499998862E-01  2.5500001138E-01  2.4499998862E-01
            znucl       14.00000

- Timing analysis has been suppressed with timopt=0

 Suggested references for the acknowledgment of ABINIT usage.

 Calculation completed.
.Delivered  13 WARNINGs and  15 COMMENTs to log file.