.Version 8.11.13 of ABINIT

 ABINIT is a project of the Universite Catholique de Louvain,
 Corning Inc. and other collaborators, see ~abinit/doc/developers/contributors.txt .
 acknowledgments of the ABINIT effort.

.Starting date : Fri 29 Nov 2019.
- ( at 13h51 )

 === Build Information ===
  Version       : 8.11.13
  Build target  : x86_64_linux_gnu5.4
  Build date    : 20191128

 === Optimizations ===
  Debug level        : basic
  Optimization level : standard
  Architecture       : unknown_unknown

 === Multicore ===
  Parallel build : yes
  Parallel I/O   : yes
  openMP support : no
  GPU support    : no

 === Connectors / Fallbacks ===
  Connectors on : yes
  Fallbacks on  : yes
  DFT flavor    : none
  FFT flavor    : fftw3
  LINALG flavor : atlas
  TIMER flavor  : abinit
  TRIO flavor   : netcdf

 === Experimental features ===
  Exports             : no
  GW double-precision : no

 Default optimizations:
   -O2 -mtune=native -march=native

 Optimizations for 43_ptgroups:
   -O0

 CPP options activated during the build:

                    CC_GNU                   CXX_GNU                    FC_GNU

 HAVE_FC_ALLOCATABLE_DT...             HAVE_FC_ASYNC         HAVE_FC_BACKTRACE

  HAVE_FC_COMMAND_ARGUMENT      HAVE_FC_COMMAND_LINE        HAVE_FC_CONTIGUOUS

           HAVE_FC_CPUTIME              HAVE_FC_EXIT             HAVE_FC_FLUSH

             HAVE_FC_GAMMA            HAVE_FC_GETENV   HAVE_FC_IEEE_ARITHMETIC

   HAVE_FC_IEEE_EXCEPTIONS          HAVE_FC_INT_QUAD             HAVE_FC_IOMSG

     HAVE_FC_ISO_C_BINDING  HAVE_FC_ISO_FORTRAN_2008        HAVE_FC_LONG_LINES

        HAVE_FC_MOVE_ALLOC  HAVE_FC_ON_THE_FLY_SHAPE           HAVE_FC_PRIVATE

         HAVE_FC_PROTECTED           HAVE_FC_SHIFTLR         HAVE_FC_STREAM_IO

            HAVE_FC_SYSTEM                  HAVE_FFT            HAVE_FFT_FFTW3

              HAVE_FFT_MPI           HAVE_FFT_SERIAL          HAVE_FORTRAN2003

        HAVE_LIBPAW_ABINIT      HAVE_LIBTETRA_ABINIT               HAVE_LINALG

        HAVE_LINALG_SERIAL                  HAVE_MPI                 HAVE_MPI2

       HAVE_MPI_IALLREDUCE        HAVE_MPI_IALLTOALL       HAVE_MPI_IALLTOALLV

           HAVE_MPI_IBCAST         HAVE_MPI_IGATHERV        HAVE_MPI_INTEGER16

               HAVE_MPI_IO HAVE_MPI_TYPE_CREATE_S...               HAVE_NETCDF

           HAVE_NETCDF_MPI                HAVE_NUMPY             HAVE_OS_LINUX

         HAVE_TIMER_ABINIT                  HAVE_XML              USE_MACROAVE

- input  file    -> sp.in
- output file    -> sp.out
- root for input  files -> spi
- root for output files -> spo

--- !WARNING
src_file: m_nctk.F90
src_line: 525
message: |
...

  Asked to delete not existent file: __TMP_FILE__

--- !WARNING
src_file: m_nctk.F90
src_line: 545
message: |
    The netcdf library does not support parallel IO, see message above
    Abinit won't be able to produce files in parallel e.g. when paral_kgb==1 is used.
...

-instrng: 54 lines of input have been read from file sp.in

 Please give name of formatted atomic psp file
 For atom type 1, psp file is ../PsP/Ca.psp8

 Please give name of formatted atomic psp file
 For atom type 2, psp file is ../PsP/Ti.psp8

 Please give name of formatted atomic psp file
 For atom type 3, psp file is ../PsP/O.psp8
  read the values zionpsp= 10.0 , pspcod=   8 , lmax=   2
  read the values zionpsp= 12.0 , pspcod=   8 , lmax=   2
  read the values zionpsp=  6.0 , pspcod=   8 , lmax=   2

 inpspheads: deduce mpsang = 3, n1xccc = 2501.

invars1m : enter jdtset= 0

 symlatt: the Bravais lattice is oP (primitive orthorhombic)
  xred   is defined in input file
 ingeo: takes atomic coordinates from input array xred

 symlatt: the Bravais lattice is oP (primitive orthorhombic)

 symlatt: the Bravais lattice is oP (primitive orthorhombic)
 symspgr: spgroup=  62  Pn m a   (=D2h^16)
 For input ecut=  4.000000E+01 best grid ngfft=      32      32      45
       max ecut=  4.031551E+01

 ==== FFT mesh ====
  FFT mesh divisions ........................    32   32   45
  Augmented FFT divisions ...................    33   33   45
  FFT algorithm .............................   312
  FFT cache size ............................    16
 getmpw: optimal value of mpw= 2786

 Symmetries : space group Pn m a (# 62); Bravais oP (primitive ortho.)

 getdim_nloc : deduce lmnmax  =  18, lnmax  =   6,
                      lmnmaxso=  18, lnmaxso=   6.
     intxc =       0    ionmov =       0      iscf =       7    lmnmax =       6
     lnmax =       6     mgfft =      45  mpssoang =       3    mqgrid =    3001
     natom =      20  nloc_mem =       1    nspden =       1   nspinor =       1
    nsppol =       1      nsym =       8    n1xccc =    2501    ntypat =       3
    occopt =       1   xclevel =       1
-    mband =          80        mffmem =           1         mkmem =           8
       mpw =        2786          nfft =       46080          nkpt =           8
  Rough estimation (10% accuracy) of disk space for files :

 The job will continue.
------------- Echo of variables that govern the present computation ------------
-
- outvars: echo of selected default values
-   iomode0 =  0 , fftalg0 =312 , wfoptalg0 =  0
-
- outvars: echo of global parameters not present in the input file
-  max_nthreads =    0
-
 -outvars: echo values of preprocessed input variables --------

 These variables are accessible in NetCDF format (spo_OUT.nc)

            acell      5.4040000000E+00  5.5130000000E+00  7.6970000000E+00 Bohr
              amu      4.00780000E+01  4.78800000E+01  1.59994000E+01
             ecut      4.00000000E+01 Hartree
-          fftalg         312
              kpt      1.25000000E-01  1.25000000E-01  1.25000000E-01
                       3.75000000E-01  1.25000000E-01  1.25000000E-01
                       1.25000000E-01  3.75000000E-01  1.25000000E-01
                       3.75000000E-01  3.75000000E-01  1.25000000E-01
                       1.25000000E-01  1.25000000E-01  3.75000000E-01
                       3.75000000E-01  1.25000000E-01  3.75000000E-01
                       1.25000000E-01  3.75000000E-01  3.75000000E-01
                       3.75000000E-01  3.75000000E-01  3.75000000E-01
         kptrlatt        4    0    0      0    4    0      0    0    4
          kptrlen      2.16160000E+01
P           mkmem           8
            natom          20
            nband          80
            ngfft          32      32      45
             nkpt           8
             nsym           8
           ntypat           3
              occ      2.000000  2.000000  2.000000  2.000000  2.000000  2.000000
                       2.000000  2.000000  2.000000  2.000000  2.000000  2.000000
                       2.000000  2.000000  2.000000  2.000000  2.000000  2.000000
                       2.000000  2.000000  2.000000  2.000000  2.000000  2.000000
                       2.000000  2.000000  2.000000  2.000000  2.000000  2.000000
                       2.000000  2.000000  2.000000  2.000000  2.000000  2.000000
                       2.000000  2.000000  2.000000  2.000000  2.000000  2.000000
                       2.000000  2.000000  2.000000  2.000000  2.000000  2.000000
                       2.000000  2.000000  2.000000  2.000000  2.000000  2.000000
                       2.000000  2.000000  2.000000  2.000000  2.000000  2.000000
                       2.000000  2.000000  2.000000  2.000000  2.000000  2.000000
                       2.000000  2.000000  2.000000  2.000000  2.000000  2.000000
                       2.000000  2.000000  2.000000  2.000000  2.000000  2.000000
                       2.000000  2.000000
           shiftk      5.00000000E-01  5.00000000E-01  5.00000000E-01
          spgroup          62
           symrel      1  0  0   0  1  0   0  0  1      -1  0  0   0 -1  0   0  0 -1
                      -1  0  0   0  1  0   0  0 -1       1  0  0   0 -1  0   0  0  1
                      -1  0  0   0 -1  0   0  0  1       1  0  0   0  1  0   0  0 -1
                       1  0  0   0 -1  0   0  0 -1      -1  0  0   0  1  0   0  0  1
            tnons      0.0000000  0.0000000  0.0000000     0.0000000  0.0000000  0.0000000
                       0.5000000  0.5000000  0.5000000     0.5000000  0.5000000  0.5000000
                       0.0000000  0.0000000  0.5000000     0.0000000  0.0000000  0.5000000
                       0.5000000  0.5000000  0.0000000     0.5000000  0.5000000  0.0000000
           toldfe      1.00000000E-10 Hartree
            typat      1  1  1  1  2  2  2  2  3  3  3  3  3  3  3  3  3  3  3  3
              wtk        0.12500    0.12500    0.12500    0.12500    0.12500    0.12500
                         0.12500    0.12500
           xangst      2.4307225899E-02  2.7866564940E+00  3.0548077309E+00
                       1.4055295917E+00  1.3279795185E+00  3.0548077309E+00
                       1.4541440435E+00  1.5893744325E+00  1.0182692436E+00
                       2.8353664093E+00  1.3069745700E-01  1.0182692436E+00
                       0.0000000000E+00  1.4586769755E+00  0.0000000000E+00
                       0.0000000000E+00  1.4586769755E+00  2.0365384873E+00
                       1.4298368176E+00  0.0000000000E+00  0.0000000000E+00
                       1.4298368176E+00  0.0000000000E+00  2.0365384873E+00
                       2.2334051091E-01  1.3985794841E+00  1.0182692436E+00
                       5.9338227931E-01  6.0710135719E-01  2.2023127201E+00
                       5.9338227931E-01  6.0710135719E-01  3.9073027417E+00
                       8.3645453830E-01  2.0657783327E+00  3.9073027417E+00
                       8.3645453830E-01  2.0657783327E+00  2.2023127201E+00
                       1.2064963067E+00  2.8572564596E+00  1.0182692436E+00
                       1.6531773285E+00  6.0097491390E-02  3.0548077309E+00
                       2.0232190969E+00  8.5157561828E-01  1.8707642544E+00
                       2.0232190969E+00  8.5157561828E-01  1.6577423286E-01
                       2.2662913559E+00  2.3102525938E+00  1.6577423286E-01
                       2.2662913559E+00  2.3102525938E+00  1.8707642544E+00
                       2.6363331243E+00  1.5187744669E+00  3.0548077309E+00
            xcart      4.5934000000E-02  5.2660176000E+00  5.7727500000E+00
                       2.6560660000E+00  2.5095176000E+00  5.7727500000E+00
                       2.7479340000E+00  3.0034824000E+00  1.9242500000E+00
                       5.3580660000E+00  2.4698240000E-01  1.9242500000E+00
                       0.0000000000E+00  2.7565000000E+00  0.0000000000E+00
                       0.0000000000E+00  2.7565000000E+00  3.8485000000E+00
                       2.7020000000E+00  0.0000000000E+00  0.0000000000E+00
                       2.7020000000E+00  0.0000000000E+00  3.8485000000E+00
                       4.2205240000E-01  2.6429322000E+00  1.9242500000E+00
                       1.1213300000E+00  1.1472553000E+00  4.1617679000E+00
                       1.1213300000E+00  1.1472553000E+00  7.3837321000E+00
                       1.5806700000E+00  3.9037553000E+00  7.3837321000E+00
[...]
   0.65073    0.68052    0.70807    0.76199    0.77877    0.80822    0.83117    0.83393
   0.88212    0.89370    0.92396    0.94939    0.97305    1.00780    1.02766    1.04754
   1.11017    1.15193    1.20046    1.24012    1.26739    1.29673    1.32343    1.33996
   1.40154    1.43369    1.46406    1.58400    1.62397    1.65834    1.69224    1.70208
   1.75108    1.76418    1.78288    1.80203    1.84510    1.87689    1.90162    1.94847
   1.95480    1.99644    2.00321    2.07473    2.09738    2.12287    2.14787    2.18393
   2.19536    2.23379    2.24893    2.28895    2.29486    2.31756    2.34150    2.39666
 kpt#   4, nband= 80, wtk=  0.12500, kpt=  0.3750  0.3750  0.1250 (reduced coord)
  -0.78859   -0.76145   -0.71623   -0.69719   -0.34019   -0.31732   -0.22487   -0.19045
  -0.17991   -0.16576    0.02540    0.03711    0.05416    0.06933    0.09846    0.11456
   0.12590    0.16250    0.47499    0.52317    0.60033    0.62733    0.64099    0.67204
   0.68283    0.70785    0.73697    0.75266    0.76193    0.79623    0.81219    0.84030
   0.87430    0.87972    0.90491    0.93703    0.95382    0.99350    1.03676    1.08843
   1.09880    1.10396    1.15031    1.17210    1.17889    1.21310    1.28991    1.34881
   1.38574    1.39649    1.49726    1.53873    1.57435    1.62511    1.68145    1.69244
   1.73390    1.74537    1.78528    1.80579    1.81598    1.84538    1.85019    1.88157
   1.92054    1.94594    1.96163    2.00023    2.08850    2.13320    2.14914    2.17010
   2.29970    2.31277    2.32208    2.34716    2.35332    2.36001    2.39594    2.41270
 kpt#   5, nband= 80, wtk=  0.12500, kpt=  0.1250  0.1250  0.3750 (reduced coord)
  -0.83370   -0.79769   -0.69983   -0.67852   -0.26275   -0.20860   -0.16073   -0.14569
  -0.13782   -0.10123   -0.05568   -0.01589   -0.00283    0.03694    0.04877    0.07533
   0.18644    0.24876    0.38455    0.44994    0.46254    0.48903    0.53831    0.60549
   0.62634    0.63004    0.68981    0.70320    0.72693    0.76900    0.81345    0.84336
   0.86841    0.88546    0.92815    0.96029    0.96302    1.02368    1.04385    1.06027
   1.16498    1.19390    1.25913    1.26944    1.28662    1.30592    1.38896    1.42429
   1.50852    1.52639    1.56616    1.59814    1.62080    1.66105    1.70896    1.74647
   1.75899    1.77569    1.79721    1.85899    1.86947    1.88899    1.89658    1.91525
   1.95048    1.98138    1.99502    2.02651    2.07358    2.10436    2.12301    2.16101
   2.17533    2.20894    2.23615    2.25240    2.27876    2.30196    2.31329    2.34995
 kpt#   6, nband= 80, wtk=  0.12500, kpt=  0.3750  0.1250  0.3750 (reduced coord)
  -0.79533   -0.76292   -0.73833   -0.71226   -0.23977   -0.22449   -0.19214   -0.17575
  -0.11618   -0.10838   -0.07521   -0.06123   -0.03619    0.00669    0.01326    0.04436
   0.30636    0.36974    0.38837    0.47228    0.48905    0.51823    0.55844    0.61509
   0.65671    0.66536    0.72434    0.73796    0.79326    0.80571    0.83161    0.85284
   0.86076    0.87273    0.88847    0.91788    0.97077    0.99106    1.01402    1.04215
   1.17481    1.18584    1.26239    1.27680    1.30094    1.34627    1.38086    1.40977
   1.42272    1.45047    1.49953    1.51098    1.54323    1.58693    1.62724    1.64856
   1.69436    1.73137    1.76458    1.81255    1.85515    1.88011    1.90223    1.90988
   1.97474    1.99071    2.00764    2.09592    2.10709    2.11366    2.14258    2.16928
   2.17742    2.21449    2.23138    2.25069    2.28478    2.30799    2.31705    2.34472
 kpt#   7, nband= 80, wtk=  0.12500, kpt=  0.1250  0.3750  0.3750 (reduced coord)
  -0.79668   -0.76408   -0.74039   -0.71400   -0.23549   -0.22701   -0.18428   -0.16618
  -0.11086   -0.10509   -0.07001   -0.05974   -0.03043    0.00198    0.01290    0.04167
   0.30378    0.36076    0.39300    0.46760    0.47566    0.54232    0.54922    0.61239
   0.64040    0.65580    0.70399    0.73240    0.78596    0.80052    0.82631    0.86086
   0.87548    0.88710    0.91235    0.93263    0.95037    0.99819    1.01237    1.05942
   1.14702    1.19415    1.22503    1.25510    1.30118    1.30902    1.33660    1.34418
   1.39765    1.42853    1.44427    1.45481    1.66029    1.67158    1.68914    1.73560
   1.74435    1.78028    1.78890    1.84027    1.86160    1.86633    1.89364    1.93156
   1.95509    1.99296    2.00596    2.05139    2.09439    2.12063    2.13260    2.17133
   2.18927    2.21583    2.24324    2.26192    2.27945    2.30617    2.36190    2.37550
 kpt#   8, nband= 80, wtk=  0.12500, kpt=  0.3750  0.3750  0.3750 (reduced coord)
  -0.77077   -0.74541   -0.74131   -0.71912   -0.30777   -0.28454   -0.25082   -0.23386
  -0.14801   -0.12115   -0.05043   -0.02830    0.04836    0.07416    0.08425    0.10658
   0.23307    0.27049    0.39094    0.42138    0.56994    0.61389    0.64279    0.66063
   0.68621    0.69606    0.75327    0.77372    0.80727    0.81156    0.81431    0.83570
   0.86788    0.89583    0.90941    0.95700    0.99152    1.02606    1.03781    1.04340
   1.10009    1.12994    1.15012    1.18775    1.24623    1.27433    1.32046    1.35271
   1.36374    1.39252    1.43263    1.46930    1.50901    1.59675    1.60517    1.66462
   1.68794    1.69823    1.77148    1.80067    1.81983    1.82422    1.86230    1.89987
   1.94238    1.99432    2.04040    2.10437    2.13429    2.15824    2.18948    2.20957
   2.26188    2.27250    2.28254    2.30566    2.32299    2.34810    2.38356    2.40988
 Total charge density [el/Bohr^3]
      Maximum=    1.8004E+00  at reduced coord.    0.0000    0.5938    0.5556
 Next maximum=    1.8004E+00  at reduced coord.    0.5000    0.0938    0.5556
      Minimum=    7.7354E-02  at reduced coord.    0.0000    0.0313    0.2444
 Next minimum=    7.7354E-02  at reduced coord.    0.5000    0.5313    0.2444
   Integrated=    1.6000E+02

 Cartesian components of stress tensor (hartree/bohr^3)
  sigma(1 1)= -3.39882545E-01  sigma(3 2)=  0.00000000E+00
  sigma(2 2)= -3.30985255E-01  sigma(3 1)=  0.00000000E+00
  sigma(3 3)= -3.43640452E-01  sigma(2 1)=  0.00000000E+00

-Cartesian components of stress tensor (GPa)         [Pressure=  9.9493E+03 GPa]
- sigma(1 1)= -9.99968802E+03  sigma(3 2)=  0.00000000E+00
- sigma(2 2)= -9.73792075E+03  sigma(3 1)=  0.00000000E+00
- sigma(3 3)= -1.01102494E+04  sigma(2 1)=  0.00000000E+00

== END DATASET(S) ==============================================================

 -outvars: echo values of variables after computation  --------

 These variables are accessible in NetCDF format (spo_OUT.nc)

            acell      5.4040000000E+00  5.5130000000E+00  7.6970000000E+00 Bohr
              amu      4.00780000E+01  4.78800000E+01  1.59994000E+01
             ecut      4.00000000E+01 Hartree
           etotal     -5.3769689419E+02
            fcart     -9.3541979040E-02  6.3866413548E-01 -6.9389076598E-19
                       9.3541979040E-02  6.3866413548E-01 -6.9389098092E-19
                      -9.3541979040E-02 -6.3866413548E-01 -6.9389055104E-19
                       9.3541979040E-02 -6.3866413548E-01 -6.9389076598E-19
                      -5.5511151231E-18 -0.0000000000E+00 -6.9389076598E-19
                      -5.5511151231E-18 -0.0000000000E+00 -6.9389076598E-19
                      -5.5511151231E-18 -0.0000000000E+00 -6.9389076598E-19
                      -5.5511151231E-18 -0.0000000000E+00 -6.9389076598E-19
                       2.1395546301E-01  2.5162968404E-01 -6.9391827777E-19
                      -1.8954263432E-01 -3.6938365850E-02  7.8518517861E-02
                      -1.8954263432E-01 -3.6938365850E-02 -7.8518517861E-02
                       1.8954263432E-01 -3.6938365850E-02 -7.8518517861E-02
                       1.8954263432E-01 -3.6938365850E-02  7.8518517861E-02
                      -2.1395546301E-01  2.5162968404E-01 -6.9383574240E-19
                       2.1395546301E-01 -2.5162968404E-01 -6.9394578956E-19
                      -1.8954263432E-01  3.6938365850E-02 -7.8518517861E-02
                      -1.8954263432E-01  3.6938365850E-02  7.8518517861E-02
                       1.8954263432E-01  3.6938365850E-02  7.8518517861E-02
                       1.8954263432E-01  3.6938365850E-02 -7.8518517861E-02
                      -2.1395546301E-01 -2.5162968404E-01 -6.9386325419E-19
-          fftalg         312
              kpt      1.25000000E-01  1.25000000E-01  1.25000000E-01
                       3.75000000E-01  1.25000000E-01  1.25000000E-01
                       1.25000000E-01  3.75000000E-01  1.25000000E-01
                       3.75000000E-01  3.75000000E-01  1.25000000E-01
                       1.25000000E-01  1.25000000E-01  3.75000000E-01
                       3.75000000E-01  1.25000000E-01  3.75000000E-01
                       1.25000000E-01  3.75000000E-01  3.75000000E-01
                       3.75000000E-01  3.75000000E-01  3.75000000E-01
         kptrlatt        4    0    0      0    4    0      0    0    4
          kptrlen      2.16160000E+01
P           mkmem           8
            natom          20
            nband          80
            ngfft          32      32      45
             nkpt           8
             nsym           8
           ntypat           3
              occ      2.000000  2.000000  2.000000  2.000000  2.000000  2.000000
                       2.000000  2.000000  2.000000  2.000000  2.000000  2.000000
                       2.000000  2.000000  2.000000  2.000000  2.000000  2.000000
                       2.000000  2.000000  2.000000  2.000000  2.000000  2.000000
                       2.000000  2.000000  2.000000  2.000000  2.000000  2.000000
                       2.000000  2.000000  2.000000  2.000000  2.000000  2.000000
                       2.000000  2.000000  2.000000  2.000000  2.000000  2.000000
                       2.000000  2.000000  2.000000  2.000000  2.000000  2.000000
                       2.000000  2.000000  2.000000  2.000000  2.000000  2.000000
                       2.000000  2.000000  2.000000  2.000000  2.000000  2.000000
                       2.000000  2.000000  2.000000  2.000000  2.000000  2.000000
                       2.000000  2.000000  2.000000  2.000000  2.000000  2.000000
                       2.000000  2.000000  2.000000  2.000000  2.000000  2.000000
                       2.000000  2.000000
           shiftk      5.00000000E-01  5.00000000E-01  5.00000000E-01
          spgroup          62
           strten     -3.3988254479E-01 -3.3098525470E-01 -3.4364045155E-01
                       0.0000000000E+00  0.0000000000E+00  0.0000000000E+00
           symrel      1  0  0   0  1  0   0  0  1      -1  0  0   0 -1  0   0  0 -1
                      -1  0  0   0  1  0   0  0 -1       1  0  0   0 -1  0   0  0  1
                      -1  0  0   0 -1  0   0  0  1       1  0  0   0  1  0   0  0 -1
                       1  0  0   0 -1  0   0  0 -1      -1  0  0   0  1  0   0  0  1
            tnons      0.0000000  0.0000000  0.0000000     0.0000000  0.0000000  0.0000000
                       0.5000000  0.5000000  0.5000000     0.5000000  0.5000000  0.5000000
                       0.0000000  0.0000000  0.5000000     0.0000000  0.0000000  0.5000000
                       0.5000000  0.5000000  0.0000000     0.5000000  0.5000000  0.0000000
           toldfe      1.00000000E-10 Hartree
            typat      1  1  1  1  2  2  2  2  3  3  3  3  3  3  3  3  3  3  3  3
              wtk        0.12500    0.12500    0.12500    0.12500    0.12500    0.12500
                         0.12500    0.12500
           xangst      2.4307225899E-02  2.7866564940E+00  3.0548077309E+00
                       1.4055295917E+00  1.3279795185E+00  3.0548077309E+00
                       1.4541440435E+00  1.5893744325E+00  1.0182692436E+00
                       2.8353664093E+00  1.3069745700E-01  1.0182692436E+00
                       0.0000000000E+00  1.4586769755E+00  0.0000000000E+00
                       0.0000000000E+00  1.4586769755E+00  2.0365384873E+00
                       1.4298368176E+00  0.0000000000E+00  0.0000000000E+00
                       1.4298368176E+00  0.0000000000E+00  2.0365384873E+00
                       2.2334051091E-01  1.3985794841E+00  1.0182692436E+00
                       5.9338227931E-01  6.0710135719E-01  2.2023127201E+00
                       5.9338227931E-01  6.0710135719E-01  3.9073027417E+00
                       8.3645453830E-01  2.0657783327E+00  3.9073027417E+00
                       8.3645453830E-01  2.0657783327E+00  2.2023127201E+00
                       1.2064963067E+00  2.8572564596E+00  1.0182692436E+00
                       1.6531773285E+00  6.0097491390E-02  3.0548077309E+00
                       2.0232190969E+00  8.5157561828E-01  1.8707642544E+00
                       2.0232190969E+00  8.5157561828E-01  1.6577423286E-01
                       2.2662913559E+00  2.3102525938E+00  1.6577423286E-01
                       2.2662913559E+00  2.3102525938E+00  1.8707642544E+00
                       2.6363331243E+00  1.5187744669E+00  3.0548077309E+00
            xcart      4.5934000000E-02  5.2660176000E+00  5.7727500000E+00
                       2.6560660000E+00  2.5095176000E+00  5.7727500000E+00
                       2.7479340000E+00  3.0034824000E+00  1.9242500000E+00
                       5.3580660000E+00  2.4698240000E-01  1.9242500000E+00
                       0.0000000000E+00  2.7565000000E+00  0.0000000000E+00
                       0.0000000000E+00  2.7565000000E+00  3.8485000000E+00
                       2.7020000000E+00  0.0000000000E+00  0.0000000000E+00
                       2.7020000000E+00  0.0000000000E+00  3.8485000000E+00
                       4.2205240000E-01  2.6429322000E+00  1.9242500000E+00
                       1.1213300000E+00  1.1472553000E+00  4.1617679000E+00
                       1.1213300000E+00  1.1472553000E+00  7.3837321000E+00
                       1.5806700000E+00  3.9037553000E+00  7.3837321000E+00
                       1.5806700000E+00  3.9037553000E+00  4.1617679000E+00
                       2.2799476000E+00  5.3994322000E+00  1.9242500000E+00
                       3.1240524000E+00  1.1356780000E-01  5.7727500000E+00
                       3.8233300000E+00  1.6092447000E+00  3.5352321000E+00
                       3.8233300000E+00  1.6092447000E+00  3.1326790000E-01
                       4.2826700000E+00  4.3657447000E+00  3.1326790000E-01
                       4.2826700000E+00  4.3657447000E+00  3.5352321000E+00
                       4.9819476000E+00  2.8700678000E+00  5.7727500000E+00
             xred      8.5000000000E-03  9.5520000000E-01  7.5000000000E-01
                       4.9150000000E-01  4.5520000000E-01  7.5000000000E-01
                       5.0850000000E-01  5.4480000000E-01  2.5000000000E-01
                       9.9150000000E-01  4.4800000000E-02  2.5000000000E-01
                       0.0000000000E+00  5.0000000000E-01  0.0000000000E+00
                       0.0000000000E+00  5.0000000000E-01  5.0000000000E-01
                       5.0000000000E-01  0.0000000000E+00  0.0000000000E+00
                       5.0000000000E-01  0.0000000000E+00  5.0000000000E-01
                       7.8100000000E-02  4.7940000000E-01  2.5000000000E-01
                       2.0750000000E-01  2.0810000000E-01  5.4070000000E-01
                       2.0750000000E-01  2.0810000000E-01  9.5930000000E-01
                       2.9250000000E-01  7.0810000000E-01  9.5930000000E-01
                       2.9250000000E-01  7.0810000000E-01  5.4070000000E-01
                       4.2190000000E-01  9.7940000000E-01  2.5000000000E-01
                       5.7810000000E-01  2.0600000000E-02  7.5000000000E-01
                       7.0750000000E-01  2.9190000000E-01  4.5930000000E-01
                       7.0750000000E-01  2.9190000000E-01  4.0700000000E-02
                       7.9250000000E-01  7.9190000000E-01  4.0700000000E-02
                       7.9250000000E-01  7.9190000000E-01  4.5930000000E-01
                       9.2190000000E-01  5.2060000000E-01  7.5000000000E-01
            znucl       20.00000   22.00000    8.00000

 Suggested references for the acknowledgment of ABINIT usage.

 Calculation completed.
.Delivered  11 WARNINGs and   3 COMMENTs to log file.

--- !FinalSummary
program: abinit
version: 8.11.13
start_datetime: Fri Nov 29 13:51:26 2019
end_datetime: Fri Nov 29 13:59:31 2019
overall_cpu_time:         464.1
overall_wall_time:         485.0
exit_requested_by_user: no
timelimit: 0
pseudos:
    Ca  : 465a3a044f2c7a72aff2b3fb3f797e8d
    Ti  : ea4ed3d71d7ed9998c7c8ddd5e23a4a6
    O   : abbcf0645b4a6d69360cd16bcad3e730
usepaw: 0
mpi_procs: 1
omp_threads: 1
num_warnings: 11
num_comments: 3
...