.Version 8.11.13 of ABINIT

 ABINIT is a project of the Universite Catholique de Louvain,
 Corning Inc. and other collaborators, see ~abinit/doc/developers/contributors.txt .
 acknowledgments of the ABINIT effort.

.Starting date : Fri 29 Nov 2019.
- ( at 13h51 )

- input  file    -> sp.in
- output file    -> sp.out
- root for input  files -> spi
- root for output files -> spo

 Symmetries : space group Pn m a (# 62); Bravais oP (primitive ortho.)
     intxc =       0    ionmov =       0      iscf =       7    lmnmax =       6
     lnmax =       6     mgfft =      45  mpssoang =       3    mqgrid =    3001
     natom =      20  nloc_mem =       1    nspden =       1   nspinor =       1
    nsppol =       1      nsym =       8    n1xccc =    2501    ntypat =       3
    occopt =       1   xclevel =       1
-    mband =          80        mffmem =           1         mkmem =           8
       mpw =        2786          nfft =       46080          nkpt =           8
  Rough estimation (10% accuracy) of disk space for files :

------------- Echo of variables that govern the present computation ------------
-
- outvars: echo of selected default values
-   iomode0 =  0 , fftalg0 =312 , wfoptalg0 =  0
-
- outvars: echo of global parameters not present in the input file
-  max_nthreads =    0
-
 -outvars: echo values of preprocessed input variables --------
            acell      5.4040000000E+00  5.5130000000E+00  7.6970000000E+00 Bohr
              amu      4.00780000E+01  4.78800000E+01  1.59994000E+01
             ecut      4.00000000E+01 Hartree
-          fftalg         312
              kpt      1.25000000E-01  1.25000000E-01  1.25000000E-01
                       3.75000000E-01  1.25000000E-01  1.25000000E-01
                       1.25000000E-01  3.75000000E-01  1.25000000E-01
                       3.75000000E-01  3.75000000E-01  1.25000000E-01
                       1.25000000E-01  1.25000000E-01  3.75000000E-01
                       3.75000000E-01  1.25000000E-01  3.75000000E-01
                       1.25000000E-01  3.75000000E-01  3.75000000E-01
                       3.75000000E-01  3.75000000E-01  3.75000000E-01
         kptrlatt        4    0    0      0    4    0      0    0    4
          kptrlen      2.16160000E+01
P           mkmem           8
            natom          20
            nband          80
            ngfft          32      32      45
             nkpt           8
             nsym           8
           ntypat           3
              occ      2.000000  2.000000  2.000000  2.000000  2.000000  2.000000
                       2.000000  2.000000  2.000000  2.000000  2.000000  2.000000
                       2.000000  2.000000  2.000000  2.000000  2.000000  2.000000
                       2.000000  2.000000  2.000000  2.000000  2.000000  2.000000
                       2.000000  2.000000  2.000000  2.000000  2.000000  2.000000
                       2.000000  2.000000  2.000000  2.000000  2.000000  2.000000
                       2.000000  2.000000  2.000000  2.000000  2.000000  2.000000
                       2.000000  2.000000  2.000000  2.000000  2.000000  2.000000
                       2.000000  2.000000  2.000000  2.000000  2.000000  2.000000
                       2.000000  2.000000  2.000000  2.000000  2.000000  2.000000
                       2.000000  2.000000  2.000000  2.000000  2.000000  2.000000
                       2.000000  2.000000  2.000000  2.000000  2.000000  2.000000
                       2.000000  2.000000  2.000000  2.000000  2.000000  2.000000
                       2.000000  2.000000
           shiftk      5.00000000E-01  5.00000000E-01  5.00000000E-01
          spgroup          62
           symrel      1  0  0   0  1  0   0  0  1      -1  0  0   0 -1  0   0  0 -1
                      -1  0  0   0  1  0   0  0 -1       1  0  0   0 -1  0   0  0  1
                      -1  0  0   0 -1  0   0  0  1       1  0  0   0  1  0   0  0 -1
                       1  0  0   0 -1  0   0  0 -1      -1  0  0   0  1  0   0  0  1
            tnons      0.0000000  0.0000000  0.0000000     0.0000000  0.0000000  0.0000000
                       0.5000000  0.5000000  0.5000000     0.5000000  0.5000000  0.5000000
                       0.0000000  0.0000000  0.5000000     0.0000000  0.0000000  0.5000000
                       0.5000000  0.5000000  0.0000000     0.5000000  0.5000000  0.0000000
           toldfe      1.00000000E-10 Hartree
            typat      1  1  1  1  2  2  2  2  3  3  3  3  3  3  3  3  3  3  3  3
              wtk        0.12500    0.12500    0.12500    0.12500    0.12500    0.12500
                         0.12500    0.12500
           xangst      2.4307225899E-02  2.7866564940E+00  3.0548077309E+00
                       1.4055295917E+00  1.3279795185E+00  3.0548077309E+00
                       1.4541440435E+00  1.5893744325E+00  1.0182692436E+00
                       2.8353664093E+00  1.3069745700E-01  1.0182692436E+00
                       0.0000000000E+00  1.4586769755E+00  0.0000000000E+00
                       0.0000000000E+00  1.4586769755E+00  2.0365384873E+00
                       1.4298368176E+00  0.0000000000E+00  0.0000000000E+00
                       1.4298368176E+00  0.0000000000E+00  2.0365384873E+00
                       2.2334051091E-01  1.3985794841E+00  1.0182692436E+00
                       5.9338227931E-01  6.0710135719E-01  2.2023127201E+00
                       5.9338227931E-01  6.0710135719E-01  3.9073027417E+00
                       8.3645453830E-01  2.0657783327E+00  3.9073027417E+00
                       8.3645453830E-01  2.0657783327E+00  2.2023127201E+00
                       1.2064963067E+00  2.8572564596E+00  1.0182692436E+00
                       1.6531773285E+00  6.0097491390E-02  3.0548077309E+00
                       2.0232190969E+00  8.5157561828E-01  1.8707642544E+00
                       2.0232190969E+00  8.5157561828E-01  1.6577423286E-01
                       2.2662913559E+00  2.3102525938E+00  1.6577423286E-01
                       2.2662913559E+00  2.3102525938E+00  1.8707642544E+00
                       2.6363331243E+00  1.5187744669E+00  3.0548077309E+00
            xcart      4.5934000000E-02  5.2660176000E+00  5.7727500000E+00
                       2.6560660000E+00  2.5095176000E+00  5.7727500000E+00
                       2.7479340000E+00  3.0034824000E+00  1.9242500000E+00
                       5.3580660000E+00  2.4698240000E-01  1.9242500000E+00
                       0.0000000000E+00  2.7565000000E+00  0.0000000000E+00
                       0.0000000000E+00  2.7565000000E+00  3.8485000000E+00
                       2.7020000000E+00  0.0000000000E+00  0.0000000000E+00
                       2.7020000000E+00  0.0000000000E+00  3.8485000000E+00
                       4.2205240000E-01  2.6429322000E+00  1.9242500000E+00
                       1.1213300000E+00  1.1472553000E+00  4.1617679000E+00
                       1.1213300000E+00  1.1472553000E+00  7.3837321000E+00
                       1.5806700000E+00  3.9037553000E+00  7.3837321000E+00
                       1.5806700000E+00  3.9037553000E+00  4.1617679000E+00
                       2.2799476000E+00  5.3994322000E+00  1.9242500000E+00
                       3.1240524000E+00  1.1356780000E-01  5.7727500000E+00
                       3.8233300000E+00  1.6092447000E+00  3.5352321000E+00
                       3.8233300000E+00  1.6092447000E+00  3.1326790000E-01
                       4.2826700000E+00  4.3657447000E+00  3.1326790000E-01
                       4.2826700000E+00  4.3657447000E+00  3.5352321000E+00
                       4.9819476000E+00  2.8700678000E+00  5.7727500000E+00
             xred      8.5000000000E-03  9.5520000000E-01  7.5000000000E-01
                       4.9150000000E-01  4.5520000000E-01  7.5000000000E-01
                       5.0850000000E-01  5.4480000000E-01  2.5000000000E-01
                       9.9150000000E-01  4.4800000000E-02  2.5000000000E-01
                       0.0000000000E+00  5.0000000000E-01  0.0000000000E+00
                       0.0000000000E+00  5.0000000000E-01  5.0000000000E-01
                       5.0000000000E-01  0.0000000000E+00  0.0000000000E+00
                       5.0000000000E-01  0.0000000000E+00  5.0000000000E-01
                       7.8100000000E-02  4.7940000000E-01  2.5000000000E-01
                       2.0750000000E-01  2.0810000000E-01  5.4070000000E-01
                       2.0750000000E-01  2.0810000000E-01  9.5930000000E-01
                       2.9250000000E-01  7.0810000000E-01  9.5930000000E-01
                       2.9250000000E-01  7.0810000000E-01  5.4070000000E-01
                       4.2190000000E-01  9.7940000000E-01  2.5000000000E-01
                       5.7810000000E-01  2.0600000000E-02  7.5000000000E-01
                       7.0750000000E-01  2.9190000000E-01  4.5930000000E-01
                       7.0750000000E-01  2.9190000000E-01  4.0700000000E-02
                       7.9250000000E-01  7.9190000000E-01  4.0700000000E-02
                       7.9250000000E-01  7.9190000000E-01  4.5930000000E-01
                       9.2190000000E-01  5.2060000000E-01  7.5000000000E-01
            znucl       20.00000   22.00000    8.00000

 chkinp: Checking input parameters for consistency.

== DATASET  1 ==================================================================
-   nproc =    1

 Real(R)+Recip(G) space primitive vectors, cartesian coordinates (Bohr,Bohr^-1):
 R(1)=  5.4040000  0.0000000  0.0000000  G(1)=  0.1850481  0.0000000  0.0000000
 R(2)=  0.0000000  5.5130000  0.0000000  G(2)=  0.0000000  0.1813894  0.0000000
 R(3)=  0.0000000  0.0000000  7.6970000  G(3)=  0.0000000  0.0000000  0.1299207
 Unit cell volume ucvol=  2.2931096E+02 bohr^3
 Angles (23,13,12)=  9.00000000E+01  9.00000000E+01  9.00000000E+01 degrees

 getcut: wavevector=  0.0000  0.0000  0.0000  ngfft=  32  32  45
         ecut(hartree)=     40.000   => boxcut(ratio)=   2.00787

--- Pseudopotential description ------------------------------------------------
- pspini: atom type   1  psp file is ../PsP/Ca.psp8
- pspatm: opening atomic psp file    ../PsP/Ca.psp8
- Ca    ONCVPSP-3.2.3.1  r_core=   1.45885   1.45885   1.85192
- 20.00000  10.00000    170504                znucl, zion, pspdat
    8   11    2    4       400   0.00000      pspcod,pspxc,lmax,lloc,mmax,r2well
    3.99000000000000    6.00000000000000    0.00000000000000   rchrg,fchrg,qchrg
     nproj     2     2     2
     extension_switch     1
  pspatm : epsatm=   12.33414111
         --- l  ekb(1:nproj) -->
             0   10.063789    0.972391
             1    3.049878    0.471799
             2   -3.406671   -1.078890
 pspatm: atomic psp has been read  and splines computed

- pspini: atom type   2  psp file is ../PsP/Ti.psp8
- pspatm: opening atomic psp file    ../PsP/Ti.psp8
- Ti    ONCVPSP-3.2.3.1  r_core=   1.35825   1.31050   1.66360
- 22.00000  12.00000    170504                znucl, zion, pspdat
    8   11    2    4       600   0.00000      pspcod,pspxc,lmax,lloc,mmax,r2well
    5.99000000000000    2.50000000000000    0.00000000000000   rchrg,fchrg,qchrg
[...]

 cartesian coordinates (angstrom) at end:
    1      0.02430722589937     2.78665649395381     3.05480773088792
    2      1.40552959171081     1.32797951847548     3.05480773088792
    3      1.45414404350955     1.58937443248119     1.01826924362931
    4      2.83536640932099     0.13069745700286     1.01826924362931
    5      0.00000000000000     1.45867697547834     0.00000000000000
    6      0.00000000000000     1.45867697547834     2.03653848725861
    7      1.42983681761018     0.00000000000000     0.00000000000000
    8      1.42983681761018     0.00000000000000     2.03653848725861
    9      0.22334051091071     1.39857948408863     1.01826924362931
   10      0.59338227930822     0.60710135719408     2.20231272012147
   11      0.59338227930822     0.60710135719408     3.90730274165438
   12      0.83645453830196     2.06577833267242     3.90730274165438
   13      0.83645453830196     2.06577833267242     2.20231272012147
   14      1.20649630669947     2.85725645956696     1.01826924362931
   15      1.65317732852089     0.06009749138971     3.05480773088792
   16      2.02321909691840     0.85157561828425     1.87076425439576
   17      2.02321909691840     0.85157561828425     0.16577423286285
   18      2.26629135591213     2.31025259376259     0.16577423286285
   19      2.26629135591213     2.31025259376259     1.87076425439576
   20      2.63633312430965     1.51877446686804     3.05480773088792

 cartesian forces (hartree/bohr) at end:
    1     -0.09354197904049     0.63866413547623    -0.00000000000000
    2      0.09354197904049     0.63866413547623    -0.00000000000000
    3     -0.09354197904049    -0.63866413547623    -0.00000000000000
    4      0.09354197904049    -0.63866413547623    -0.00000000000000
    5     -0.00000000000000    -0.00000000000000    -0.00000000000000
    6     -0.00000000000000    -0.00000000000000    -0.00000000000000
    7     -0.00000000000000    -0.00000000000000    -0.00000000000000
    8     -0.00000000000000    -0.00000000000000    -0.00000000000000
    9      0.21395546300767     0.25162968404190    -0.00000000000000
   10     -0.18954263431891    -0.03693836584975     0.07851851786087
   11     -0.18954263431891    -0.03693836584975    -0.07851851786087
   12      0.18954263431891    -0.03693836584975    -0.07851851786087
   13      0.18954263431891    -0.03693836584975     0.07851851786087
   14     -0.21395546300767     0.25162968404190    -0.00000000000000
   15      0.21395546300767    -0.25162968404190    -0.00000000000000
   16     -0.18954263431891     0.03693836584975    -0.07851851786087
   17     -0.18954263431891     0.03693836584975     0.07851851786087
   18      0.18954263431891     0.03693836584975     0.07851851786087
   19      0.18954263431891     0.03693836584975    -0.07851851786087
   20     -0.21395546300767    -0.25162968404190    -0.00000000000000
 frms,max,avg= 2.0209708E-01 6.3866414E-01   0.000E+00  0.000E+00  0.000E+00 h/b

 cartesian forces (eV/Angstrom) at end:
    1     -4.81012155734600    32.84142753306624    -0.00000000000000
    2      4.81012155734600    32.84142753306624    -0.00000000000000
    3     -4.81012155734600   -32.84142753306624    -0.00000000000000
    4      4.81012155734600   -32.84142753306624    -0.00000000000000
    5     -0.00000000000000    -0.00000000000000    -0.00000000000000
    6     -0.00000000000000    -0.00000000000000    -0.00000000000000
    7     -0.00000000000000    -0.00000000000000    -0.00000000000000
    8     -0.00000000000000    -0.00000000000000    -0.00000000000000
    9     11.00203133910189    12.93931751384215    -0.00000000000000
   10     -9.74667331956776    -1.89944698294331     4.03758418720124
   11     -9.74667331956776    -1.89944698294331    -4.03758418720124
   12      9.74667331956776    -1.89944698294331    -4.03758418720124
   13      9.74667331956776    -1.89944698294331     4.03758418720124
   14    -11.00203133910189    12.93931751384215    -0.00000000000000
   15     11.00203133910189   -12.93931751384215    -0.00000000000000
   16     -9.74667331956776     1.89944698294331    -4.03758418720124
   17     -9.74667331956776     1.89944698294331     4.03758418720124
   18      9.74667331956776     1.89944698294331     4.03758418720124
   19      9.74667331956776     1.89944698294331    -4.03758418720124
   20    -11.00203133910189   -12.93931751384215    -0.00000000000000
 frms,max,avg= 1.0392249E+01 3.2841428E+01   0.000E+00  0.000E+00  0.000E+00 e/A
 length scales=  5.404000000000  5.513000000000  7.697000000000 bohr
              =  2.859673635220  2.917353950957  4.073076974517 angstroms
 prteigrs : about to open file spo_EIG
 Fermi (or HOMO) energy (hartree) =   2.41270   Average Vxc (hartree)=  -0.94578
 Eigenvalues (hartree) for nkpt=   8  k points:
 kpt#   1, nband= 80, wtk=  0.12500, kpt=  0.1250  0.1250  0.1250 (reduced coord)
  -0.85485   -0.76508   -0.71330   -0.66133   -0.34244   -0.23676   -0.16703   -0.11155
  -0.10715   -0.06192   -0.04637   -0.02546    0.02955    0.03508    0.09543    0.10643
   0.14323    0.25395    0.35687    0.36517    0.39246    0.47591    0.55297    0.60335
   0.61981    0.63612    0.71146    0.72647    0.76788    0.78253    0.79676    0.85804
   0.88950    0.92659    0.95830    0.97591    1.01744    1.03586    1.05351    1.07934
   1.10285    1.12091    1.13898    1.26330    1.32904    1.34817    1.36114    1.41332
   1.50825    1.54809    1.57253    1.58007    1.62503    1.66515    1.69813    1.72074
   1.73604    1.79564    1.81084    1.82753    1.84075    1.89588    1.92705    1.93750
   1.95312    1.98694    2.00741    2.02146    2.05667    2.07806    2.10472    2.13803
   2.14780    2.16222    2.22444    2.26635    2.28946    2.31889    2.33559    2.36722
 prteigrs : prtvol=0 or 1, do not print more k-points.

 Components of total free energy (in Hartree) :

    Kinetic energy  =  4.61668105418814E+02
    Hartree energy  =  3.42770284484789E+01
    XC energy       = -1.45343660940962E+02
    Ewald energy    = -8.20595119615796E+02
    PspCore energy  =  1.27273713193440E+02
    Loc. psp. energy= -1.39801106086627E+02
    NL   psp  energy= -5.51758546095824E+01
    >>>>>>>>> Etotal= -5.37696894192235E+02

 Other information on the energy :
    Total energy(eV)= -1.46314765881947E+04 ; Band energy (Ha)=   1.7051977100E+02

 Cartesian components of stress tensor (hartree/bohr^3)
  sigma(1 1)= -3.39882545E-01  sigma(3 2)=  0.00000000E+00
  sigma(2 2)= -3.30985255E-01  sigma(3 1)=  0.00000000E+00
  sigma(3 3)= -3.43640452E-01  sigma(2 1)=  0.00000000E+00

-Cartesian components of stress tensor (GPa)         [Pressure=  9.9493E+03 GPa]
- sigma(1 1)= -9.99968802E+03  sigma(3 2)=  0.00000000E+00
- sigma(2 2)= -9.73792075E+03  sigma(3 1)=  0.00000000E+00
- sigma(3 3)= -1.01102494E+04  sigma(2 1)=  0.00000000E+00

== END DATASET(S) ==============================================================

 -outvars: echo values of variables after computation  --------
            acell      5.4040000000E+00  5.5130000000E+00  7.6970000000E+00 Bohr
              amu      4.00780000E+01  4.78800000E+01  1.59994000E+01
             ecut      4.00000000E+01 Hartree
           etotal     -5.3769689419E+02
            fcart     -9.3541979040E-02  6.3866413548E-01 -6.9389076598E-19
                       9.3541979040E-02  6.3866413548E-01 -6.9389098092E-19
                      -9.3541979040E-02 -6.3866413548E-01 -6.9389055104E-19
                       9.3541979040E-02 -6.3866413548E-01 -6.9389076598E-19
                      -5.5511151231E-18 -0.0000000000E+00 -6.9389076598E-19
                      -5.5511151231E-18 -0.0000000000E+00 -6.9389076598E-19
                      -5.5511151231E-18 -0.0000000000E+00 -6.9389076598E-19
                      -5.5511151231E-18 -0.0000000000E+00 -6.9389076598E-19
                       2.1395546301E-01  2.5162968404E-01 -6.9391827777E-19
                      -1.8954263432E-01 -3.6938365850E-02  7.8518517861E-02
                      -1.8954263432E-01 -3.6938365850E-02 -7.8518517861E-02
                       1.8954263432E-01 -3.6938365850E-02 -7.8518517861E-02
                       1.8954263432E-01 -3.6938365850E-02  7.8518517861E-02
                      -2.1395546301E-01  2.5162968404E-01 -6.9383574240E-19
                       2.1395546301E-01 -2.5162968404E-01 -6.9394578956E-19
                      -1.8954263432E-01  3.6938365850E-02 -7.8518517861E-02
                      -1.8954263432E-01  3.6938365850E-02  7.8518517861E-02
                       1.8954263432E-01  3.6938365850E-02  7.8518517861E-02
                       1.8954263432E-01  3.6938365850E-02 -7.8518517861E-02
                      -2.1395546301E-01 -2.5162968404E-01 -6.9386325419E-19
-          fftalg         312
              kpt      1.25000000E-01  1.25000000E-01  1.25000000E-01
                       3.75000000E-01  1.25000000E-01  1.25000000E-01
                       1.25000000E-01  3.75000000E-01  1.25000000E-01
                       3.75000000E-01  3.75000000E-01  1.25000000E-01
                       1.25000000E-01  1.25000000E-01  3.75000000E-01
                       3.75000000E-01  1.25000000E-01  3.75000000E-01
                       1.25000000E-01  3.75000000E-01  3.75000000E-01
                       3.75000000E-01  3.75000000E-01  3.75000000E-01
         kptrlatt        4    0    0      0    4    0      0    0    4
          kptrlen      2.16160000E+01
P           mkmem           8
            natom          20
            nband          80
            ngfft          32      32      45
             nkpt           8
             nsym           8
           ntypat           3
              occ      2.000000  2.000000  2.000000  2.000000  2.000000  2.000000
                       2.000000  2.000000  2.000000  2.000000  2.000000  2.000000
                       2.000000  2.000000  2.000000  2.000000  2.000000  2.000000
                       2.000000  2.000000  2.000000  2.000000  2.000000  2.000000
                       2.000000  2.000000  2.000000  2.000000  2.000000  2.000000
                       2.000000  2.000000  2.000000  2.000000  2.000000  2.000000
                       2.000000  2.000000  2.000000  2.000000  2.000000  2.000000
                       2.000000  2.000000  2.000000  2.000000  2.000000  2.000000
                       2.000000  2.000000  2.000000  2.000000  2.000000  2.000000
                       2.000000  2.000000  2.000000  2.000000  2.000000  2.000000
                       2.000000  2.000000  2.000000  2.000000  2.000000  2.000000
                       2.000000  2.000000  2.000000  2.000000  2.000000  2.000000
                       2.000000  2.000000  2.000000  2.000000  2.000000  2.000000
                       2.000000  2.000000
           shiftk      5.00000000E-01  5.00000000E-01  5.00000000E-01
          spgroup          62
           strten     -3.3988254479E-01 -3.3098525470E-01 -3.4364045155E-01
                       0.0000000000E+00  0.0000000000E+00  0.0000000000E+00
           symrel      1  0  0   0  1  0   0  0  1      -1  0  0   0 -1  0   0  0 -1
                      -1  0  0   0  1  0   0  0 -1       1  0  0   0 -1  0   0  0  1
                      -1  0  0   0 -1  0   0  0  1       1  0  0   0  1  0   0  0 -1
                       1  0  0   0 -1  0   0  0 -1      -1  0  0   0  1  0   0  0  1
            tnons      0.0000000  0.0000000  0.0000000     0.0000000  0.0000000  0.0000000
                       0.5000000  0.5000000  0.5000000     0.5000000  0.5000000  0.5000000
                       0.0000000  0.0000000  0.5000000     0.0000000  0.0000000  0.5000000
                       0.5000000  0.5000000  0.0000000     0.5000000  0.5000000  0.0000000
           toldfe      1.00000000E-10 Hartree
            typat      1  1  1  1  2  2  2  2  3  3  3  3  3  3  3  3  3  3  3  3
              wtk        0.12500    0.12500    0.12500    0.12500    0.12500    0.12500
                         0.12500    0.12500
           xangst      2.4307225899E-02  2.7866564940E+00  3.0548077309E+00
                       1.4055295917E+00  1.3279795185E+00  3.0548077309E+00
                       1.4541440435E+00  1.5893744325E+00  1.0182692436E+00
                       2.8353664093E+00  1.3069745700E-01  1.0182692436E+00
                       0.0000000000E+00  1.4586769755E+00  0.0000000000E+00
                       0.0000000000E+00  1.4586769755E+00  2.0365384873E+00
                       1.4298368176E+00  0.0000000000E+00  0.0000000000E+00
                       1.4298368176E+00  0.0000000000E+00  2.0365384873E+00
                       2.2334051091E-01  1.3985794841E+00  1.0182692436E+00
                       5.9338227931E-01  6.0710135719E-01  2.2023127201E+00
                       5.9338227931E-01  6.0710135719E-01  3.9073027417E+00
                       8.3645453830E-01  2.0657783327E+00  3.9073027417E+00
                       8.3645453830E-01  2.0657783327E+00  2.2023127201E+00
                       1.2064963067E+00  2.8572564596E+00  1.0182692436E+00
                       1.6531773285E+00  6.0097491390E-02  3.0548077309E+00
                       2.0232190969E+00  8.5157561828E-01  1.8707642544E+00
                       2.0232190969E+00  8.5157561828E-01  1.6577423286E-01
                       2.2662913559E+00  2.3102525938E+00  1.6577423286E-01
                       2.2662913559E+00  2.3102525938E+00  1.8707642544E+00
                       2.6363331243E+00  1.5187744669E+00  3.0548077309E+00
            xcart      4.5934000000E-02  5.2660176000E+00  5.7727500000E+00
                       2.6560660000E+00  2.5095176000E+00  5.7727500000E+00
                       2.7479340000E+00  3.0034824000E+00  1.9242500000E+00
                       5.3580660000E+00  2.4698240000E-01  1.9242500000E+00
                       0.0000000000E+00  2.7565000000E+00  0.0000000000E+00
                       0.0000000000E+00  2.7565000000E+00  3.8485000000E+00
                       2.7020000000E+00  0.0000000000E+00  0.0000000000E+00
                       2.7020000000E+00  0.0000000000E+00  3.8485000000E+00
                       4.2205240000E-01  2.6429322000E+00  1.9242500000E+00
                       1.1213300000E+00  1.1472553000E+00  4.1617679000E+00
                       1.1213300000E+00  1.1472553000E+00  7.3837321000E+00
                       1.5806700000E+00  3.9037553000E+00  7.3837321000E+00
                       1.5806700000E+00  3.9037553000E+00  4.1617679000E+00
                       2.2799476000E+00  5.3994322000E+00  1.9242500000E+00
                       3.1240524000E+00  1.1356780000E-01  5.7727500000E+00
                       3.8233300000E+00  1.6092447000E+00  3.5352321000E+00
                       3.8233300000E+00  1.6092447000E+00  3.1326790000E-01
                       4.2826700000E+00  4.3657447000E+00  3.1326790000E-01
                       4.2826700000E+00  4.3657447000E+00  3.5352321000E+00
                       4.9819476000E+00  2.8700678000E+00  5.7727500000E+00
             xred      8.5000000000E-03  9.5520000000E-01  7.5000000000E-01
                       4.9150000000E-01  4.5520000000E-01  7.5000000000E-01
                       5.0850000000E-01  5.4480000000E-01  2.5000000000E-01
                       9.9150000000E-01  4.4800000000E-02  2.5000000000E-01
                       0.0000000000E+00  5.0000000000E-01  0.0000000000E+00
                       0.0000000000E+00  5.0000000000E-01  5.0000000000E-01
                       5.0000000000E-01  0.0000000000E+00  0.0000000000E+00
                       5.0000000000E-01  0.0000000000E+00  5.0000000000E-01
                       7.8100000000E-02  4.7940000000E-01  2.5000000000E-01
                       2.0750000000E-01  2.0810000000E-01  5.4070000000E-01
                       2.0750000000E-01  2.0810000000E-01  9.5930000000E-01
                       2.9250000000E-01  7.0810000000E-01  9.5930000000E-01
                       2.9250000000E-01  7.0810000000E-01  5.4070000000E-01
                       4.2190000000E-01  9.7940000000E-01  2.5000000000E-01
                       5.7810000000E-01  2.0600000000E-02  7.5000000000E-01
                       7.0750000000E-01  2.9190000000E-01  4.5930000000E-01
                       7.0750000000E-01  2.9190000000E-01  4.0700000000E-02
                       7.9250000000E-01  7.9190000000E-01  4.0700000000E-02
                       7.9250000000E-01  7.9190000000E-01  4.5930000000E-01
                       9.2190000000E-01  5.2060000000E-01  7.5000000000E-01
            znucl       20.00000   22.00000    8.00000

- Timing analysis has been suppressed with timopt=0

 Suggested references for the acknowledgment of ABINIT usage.

 Calculation completed.
.Delivered  11 WARNINGs and   3 COMMENTs to log file.