.Version 8.11.13 of ABINIT

 ABINIT is a project of the Universite Catholique de Louvain,
 Corning Inc. and other collaborators, see ~abinit/doc/developers/contributors.txt .
 acknowledgments of the ABINIT effort.

.Starting date : Fri 10 Jan 2020.
- ( at 12h10 )

- input  file    -> opt.in
- output file    -> opt.out
- root for input  files -> opti
- root for output files -> opto

 Symmetries : space group Im m a (# 74); Bravais oI (body-center ortho.)
     intxc =       0    ionmov =       2      iscf =       7    lmnmax =       6
     lnmax =       6     mgfft =      32  mpssoang =       3    mqgrid =    3001
     natom =       2  nloc_mem =       1    nspden =       1   nspinor =       1
    nsppol =       1      nsym =       8    n1xccc =    2501    ntypat =       1
    occopt =       1   xclevel =       2
-    mband =           6        mffmem =           1         mkmem =           1
       mpw =        1305          nfft =       32768          nkpt =           6
  Rough estimation (10% accuracy) of disk space for files :

------------- Echo of variables that govern the present computation ------------
-
- outvars: echo of selected default values
-   iomode0 =  0 , fftalg0 =312 , wfoptalg0 =  0
-
- outvars: echo of global parameters not present in the input file
-  max_nthreads =    0
-
 -outvars: echo values of preprocessed input variables --------
            acell      1.1338356797E+01  1.1338356797E+01  1.1338356797E+01 Bohr
              amu      2.80855000E+01
          dilatmx      1.05000000E+00
             ecut      1.60000000E+01 Hartree
           ecutsm      5.00000000E-01 Hartree
-          fftalg         312
           ionmov           2
              ixc          11
              kpt     -2.50000000E-01  5.00000000E-01  0.00000000E+00
                       5.00000000E-01 -2.50000000E-01  0.00000000E+00
                      -2.50000000E-01  0.00000000E+00  0.00000000E+00
                       0.00000000E+00 -2.50000000E-01  0.00000000E+00
                       2.50000000E-01 -2.50000000E-01  2.50000000E-01
                       5.00000000E-01  0.00000000E+00  2.50000000E-01
         kptrlatt        2   -2    2     -2    2    2     -2   -2    2
          kptrlen      2.26767136E+01
P           mkmem           1
            natom           2
            nband           6
            ngfft          32      32      32
             nkpt           6
             nsym           8
            ntime          15
           ntypat           1
              occ      2.000000  2.000000  2.000000  2.000000  0.000000  0.000000
          optcell           2
            rprim      5.0000000000E-01  5.0000000000E-01  0.0000000000E+00
                       0.0000000000E+00  5.0000000000E-01  5.0000000000E-01
                       5.0000000000E-01  0.0000000000E+00  5.0000000000E-01
           shiftk      5.00000000E-01  5.00000000E-01  5.00000000E-01
          spgroup          74
           symrel      1  0  0   0  1  0   0  0  1      -1  0  0   0 -1  0   0  0 -1
                       0 -1  1   0 -1  0   1 -1  0       0  1 -1   0  1  0  -1  1  0
                       0  0  1   0  1  0   1  0  0       0  0 -1   0 -1  0  -1  0  0
                       1 -1  0   0 -1  0   0 -1  1      -1  1  0   0  1  0   0  1 -1
            tnons      0.0000000  0.0000000  0.0000000     0.2400000  0.2600000  0.2400000
                       0.0000000  0.0000000  0.0000000     0.2400000  0.2600000  0.2400000
                       0.0000000  0.0000000  0.0000000     0.2400000  0.2600000  0.2400000
                       0.0000000  0.0000000  0.0000000     0.2400000  0.2600000  0.2400000
           tolmxf      1.00000000E-08
           tolvrs      1.00000000E-10
            typat      1  1
              wtk        0.25000    0.25000    0.12500    0.12500    0.12500    0.12500
           xangst      0.0000000000E+00  0.0000000000E+00  0.0000000000E+00
                       1.4400000000E+00  1.5000000000E+00  1.5000000000E+00
            xcart      0.0000000000E+00  0.0000000000E+00  0.0000000000E+00
                       2.7212056314E+00  2.8345891993E+00  2.8345891993E+00
             xred      0.0000000000E+00  0.0000000000E+00  0.0000000000E+00
                       2.4000000000E-01  2.6000000000E-01  2.4000000000E-01
            znucl       14.00000

 chkinp: Checking input parameters for consistency.

 chkinp: WARNING -
   Chksymbreak=1 . Found potentially symmetry-breaking value of tnons,
   which is neither a rational fraction in 1/8th nor in 1/12th :
   for the symmetry number    2
   symrel is  -1  0  0  0 -1  0  0  0 -1
   tnons is     2.400000E-01    2.600000E-01    2.400000E-01
   Please, read the description of the input variable chksymbreak,
   then, if you feel confident, you might switch it to zero, or consult with the forum.

[...]

 chkinp: WARNING -
   Chksymbreak=1 . Found potentially symmetry-breaking value of tnons,
   which is neither a rational fraction in 1/8th nor in 1/12th :
   for the symmetry number    8
   symrel is  -1  1  0  0  1  0  0  1 -1
   tnons is     2.400000E-01    2.600000E-01    2.400000E-01
   Please, read the description of the input variable chksymbreak,
   then, if you feel confident, you might switch it to zero, or consult with the forum.

== DATASET  1 ==================================================================
-   nproc =    6

 Real(R)+Recip(G) space primitive vectors, cartesian coordinates (Bohr,Bohr^-1):
 R(1)=  5.6691784  5.6691784  0.0000000  G(1)=  0.0881962  0.0881962 -0.0881962
 R(2)=  0.0000000  5.6691784  5.6691784  G(2)= -0.0881962  0.0881962  0.0881962
 R(3)=  5.6691784  0.0000000  5.6691784  G(3)=  0.0881962 -0.0881962  0.0881962
 Unit cell volume ucvol=  3.6441007E+02 bohr^3
 Angles (23,13,12)=  6.00000000E+01  6.00000000E+01  6.00000000E+01 degrees

 getcut: wavevector=  0.0000  0.0000  0.0000  ngfft=  32  32  32
         ecut(hartree)=     17.640   => boxcut(ratio)=   2.11106

--- Pseudopotential description ------------------------------------------------
- pspini: atom type   1  psp file is /CECI/home/ucl/naps/jovbever/.PsP/Si/Si.psp8
- pspatm: opening atomic psp file    /CECI/home/ucl/naps/jovbever/.PsP/Si/Si.psp8
- Si    ONCVPSP-3.2.3.1  r_core=   1.60303   1.72197   1.91712
- 14.00000   4.00000    170510                znucl, zion, pspdat
    8   11    2    4       600   0.00000      pspcod,pspxc,lmax,lloc,mmax,r2well
    5.99000000000000    4.00000000000000    0.00000000000000   rchrg,fchrg,qchrg
     nproj     2     2     2
     extension_switch     1
  pspatm : epsatm=    9.34321699
         --- l  ekb(1:nproj) -->
             0    5.168965    0.829883
             1    2.571282    0.578307
             2   -2.427311   -0.488097
 pspatm: atomic psp has been read  and splines computed

   1.49491472E+02                                ecore*ucvol(ha*bohr**3)

_setup2: Arith. and geom. avg. npw (full set) are    1291.500    1291.477

=== [ionmov= 2] Broyden-Fletcher-Goldfard-Shanno method (forces)

--- Iteration: ( 1/15) Internal Cycle: (1/1)

---SELF-CONSISTENT-FIELD CONVERGENCE--------------------------------------------

     iter   Etot(hartree)      deltaE(h)  residm     vres2
 ETOT  1  -8.4289679653160    -8.429E+00 5.216E-03 2.345E+00
 ETOT  2  -8.4310520137413    -2.084E-03 8.250E-04 1.169E-01
 ETOT  3  -8.4310689120431    -1.690E-05 3.503E-04 4.986E-03
 ETOT  4  -8.4310693214897    -4.094E-07 2.049E-04 4.435E-04
 ETOT  5  -8.4310693507318    -2.924E-08 5.583E-05 1.227E-05
 ETOT  6  -8.4310693524419    -1.710E-09 4.676E-05 2.070E-07
 ETOT  7  -8.4310693524626    -2.076E-11 1.226E-05 1.905E-09
 ETOT  8  -8.4310693524627    -7.994E-14 1.034E-05 9.347E-12

 At SCF step    8       vres2   =  9.35E-12 < tolvrs=  1.00E-10 =>converged.

 Cartesian components of stress tensor (hartree/bohr^3)
  sigma(1 1)=  4.41206694E-04  sigma(3 2)= -1.79714777E-06
  sigma(2 2)=  4.40157086E-04  sigma(3 1)=  0.00000000E+00
  sigma(3 3)=  4.40157086E-04  sigma(2 1)=  0.00000000E+00

 Integrated electronic density in atomic spheres:
 Atom  Sphere_radius  Integrated_density
    1        2.00000          1.60374024
    2        2.00000          1.58504459

---OUTPUT-----------------------------------------------------------------------

 Cartesian coordinates (xcart) [bohr]
  0.00000000000000E+00  0.00000000000000E+00  0.00000000000000E+00
  2.72120563135533E+00  2.83458919932846E+00  2.83458919932846E+00
 Reduced coordinates (xred)
  0.00000000000000E+00  0.00000000000000E+00  0.00000000000000E+00
  2.40000000000000E-01  2.60000000000000E-01  2.40000000000000E-01
 Cartesian forces (fcart) [Ha/bohr]; max,rms= 9.09854E-03 5.25304E-03 (free atoms)
 -9.09853518193191E-03  0.00000000000000E+00  0.00000000000000E+00
  9.09853518193191E-03  0.00000000000000E+00  0.00000000000000E+00
 Reduced forces (fred)
  5.15812191128285E-02  0.00000000000000E+00  5.15812191128285E-02
 -5.15812191128285E-02  0.00000000000000E+00 -5.15812191128285E-02
 Scale of Primitive Cell (acell) [bohr]
  1.13383567973139E+01  1.13383567973139E+01  1.13383567973139E+01
 Real space primitive translations (rprimd) [bohr]
  5.66917839865693E+00  5.66917839865693E+00  0.00000000000000E+00
  0.00000000000000E+00  5.66917839865693E+00  5.66917839865693E+00
  5.66917839865693E+00  0.00000000000000E+00  5.66917839865693E+00
 Unitary Cell Volume (ucvol) [Bohr^3]=  3.64410067486860E+02
 Angles (23,13,12)= [degrees]
  6.00000000000000E+01  6.00000000000000E+01  6.00000000000000E+01
 Lengths [Bohr]
  8.01742897889321E+00  8.01742897889321E+00  8.01742897889321E+00
 Stress tensor in cartesian coordinates (strten) [Ha/bohr^3]
  4.41206694310292E-04  0.00000000000000E+00  0.00000000000000E+00
  0.00000000000000E+00  4.40157086034984E-04 -1.79714777058494E-06
  0.00000000000000E+00 -1.79714777058494E-06  4.40157086034984E-04
 Total energy (etotal) [Ha]= -8.43106935246272E+00

[...]

 Difference of energy with previous step (new-old):
           Absolute (Ha)=-6.26033E-03
           Relative     =-7.42255E-04

[...]

--- Iteration: ( 9/15) Internal Cycle: (1/1)

[...]

--- Iteration: (10/15) Internal Cycle: (1/1)

[...]

--- Iteration: (15/15) Internal Cycle: (1/1)

---SELF-CONSISTENT-FIELD CONVERGENCE--------------------------------------------

     iter   Etot(hartree)      deltaE(h)  residm     vres2
 ETOT  1  -8.4566220077098    -8.457E+00 3.666E-13 3.579E-08
 ETOT  2  -8.4566220077148    -4.983E-12 4.085E-15 3.458E-10
 ETOT  3  -8.4566220077148    -2.309E-14 1.472E-15 3.302E-11

 At SCF step    3       vres2   =  3.30E-11 < tolvrs=  1.00E-10 =>converged.

[...]

 Integrated electronic density in atomic spheres:
 Atom  Sphere_radius  Integrated_density
    1        2.00000          1.75807269
    2        2.00000          1.75807270

---OUTPUT-----------------------------------------------------------------------

 Cartesian coordinates (xcart) [bohr]
 -5.17476809604263E-02  3.82056423567191E-17  4.51028103753970E-17
  2.53561418601791E+00  2.58736020190897E+00  2.58736020190897E+00
 Reduced coordinates (xred)
 -5.00004465023168E-03  5.00004465023169E-03 -5.00004465023168E-03
  2.45000044650232E-01  2.54999955349768E-01  2.45000044650232E-01
 Cartesian forces (fcart) [Ha/bohr]; max,rms= 1.57426E-07 9.08897E-08 (free atoms)
  1.57425512701392E-07  6.61744490042422E-24 -6.61744490042422E-24
 -1.57425512701392E-07 -6.61744490042422E-24  6.61744490042422E-24
 Reduced forces (fred)
 -8.14633245917685E-07  0.00000000000000E+00 -8.14633245917685E-07
  8.14633245917685E-07  0.00000000000000E+00  8.14633245917685E-07
 Scale of Primitive Cell (acell) [bohr]
  7.31816045683266E+00  7.31815977656811E+00  7.31816045683266E+00
 Real space primitive translations (rprimd) [bohr]
  5.17472188553641E+00  5.17471988413860E+00  5.19679337762679E-07
  0.00000000000000E+00  5.17472040381794E+00  5.17472040381794E+00
  5.17472188553641E+00  5.19679337720427E-07  5.17471988413860E+00
 Unitary Cell Volume (ucvol) [Bohr^3]=  2.77134568305008E+02
 Angles (23,13,12)= [degrees]
  6.00000030749490E+01  5.99999805617695E+01  6.00000030749489E+01
 Lengths [Bohr]
  7.31816045683266E+00  7.31815977656811E+00  7.31816045683266E+00
 Stress tensor in cartesian coordinates (strten) [Ha/bohr^3]
  1.52257345034830E-09  0.00000000000000E+00  0.00000000000000E+00
  0.00000000000000E+00  2.29522047418343E-10  1.47640128941862E-09
  0.00000000000000E+00  1.47640128941862E-09  2.29522047852024E-10
 Total energy (etotal) [Ha]= -8.45662200771481E+00

 Difference of energy with previous step (new-old):
           Absolute (Ha)=-9.54792E-12
           Relative     =-1.12905E-12

 fconv : WARNING -
  ntime=   15 was not enough Broyd/MD steps to converge gradients:
  max grad (force/stress) = 1.5743E-07 > tolmxf= 1.0000E-08 ha/bohr (free atoms)

 ----iterations are completed or convergence reached----

 Mean square residual over all n,k,spin=   52.844E-17; max=  14.719E-16
 reduced coordinates (array xred) for    2 atoms
      -0.005000044650      0.005000044650     -0.005000044650
       0.245000044650      0.254999955350      0.245000044650
 rms dE/dt=  6.6515E-07; max dE/dt=  8.1463E-07; dE/dt below (all hartree)
    1      -0.000000814633      0.000000000000     -0.000000814633
    2       0.000000814633      0.000000000000      0.000000814633

 cartesian coordinates (angstrom) at end:
    1     -0.02738369336164     0.00000000000000     0.00000000000000
    2      1.34178923701816     1.36917204926305     1.36917204926305

 cartesian forces (hartree/bohr) at end:
    1      0.00000015742551     0.00000000000000    -0.00000000000000
    2     -0.00000015742551    -0.00000000000000     0.00000000000000
 frms,max,avg= 9.0889662E-08 1.5742551E-07   0.000E+00  0.000E+00  0.000E+00 h/b

 cartesian forces (eV/Angstrom) at end:
    1      0.00000809514466     0.00000000000000    -0.00000000000000
    2     -0.00000809514466    -0.00000000000000     0.00000000000000
 frms,max,avg= 4.6737339E-06 8.0951447E-06   0.000E+00  0.000E+00  0.000E+00 e/A
 length scales=  7.318160456833  7.318159776568  7.318160456833 bohr
              =  3.872603722560  3.872603362580  3.872603722560 angstroms
 prteigrs : about to open file opto_EIG
 Fermi (or HOMO) energy (hartree) =   0.12570   Average Vxc (hartree)=  -0.33702
 Eigenvalues (hartree) for nkpt=   6  k points:
 kpt#   1, nband=  6, wtk=  0.25000, kpt= -0.2500  0.5000  0.0000 (reduced coord)
  -0.18288   -0.07924    0.02595    0.07371    0.20945    0.31562
 prteigrs : prtvol=0 or 1, do not print more k-points.

 Components of total free energy (in Hartree) :

    Kinetic energy  =  3.05631442507879E+00
    Hartree energy  =  5.68698499987997E-01
    XC energy       = -3.08232564143405E+00
    Ewald energy    = -8.32786696907677E+00
    PspCore energy  =  5.39418350977334E-01
    Loc. psp. energy= -2.35394383174175E+00
    NL   psp  energy=  1.14308315849365E+00
    >>>>>>>>> Etotal= -8.45662200771481E+00

 Other information on the energy :
    Total energy(eV)= -2.30116387610852E+02 ; Band energy (Ha)=  -2.3872633572E-01

 rms coord change=  5.0000E-03   atom, delta coord (reduced):
     1       -0.005000044650      0.005000044650     -0.005000044650
     2        0.005000044650     -0.005000044650      0.005000044650

 Cartesian components of stress tensor (hartree/bohr^3)
  sigma(1 1)=  1.52257345E-09  sigma(3 2)=  1.47640129E-09
  sigma(2 2)=  2.29522047E-10  sigma(3 1)=  0.00000000E+00
  sigma(3 3)=  2.29522048E-10  sigma(2 1)=  0.00000000E+00

-Cartesian components of stress tensor (GPa)         [Pressure= -1.9434E-05 GPa]
- sigma(1 1)=  4.47956499E-05  sigma(3 2)=  4.34372183E-05
- sigma(2 2)=  6.75277064E-06  sigma(3 1)=  0.00000000E+00
- sigma(3 3)=  6.75277065E-06  sigma(2 1)=  0.00000000E+00

== END DATASET(S) ==============================================================

 -outvars: echo values of variables after computation  --------
            acell      7.3181604568E+00  7.3181597766E+00  7.3181604568E+00 Bohr
              amu      2.80855000E+01
          dilatmx      1.05000000E+00
             ecut      1.60000000E+01 Hartree
           ecutsm      5.00000000E-01 Hartree
           etotal     -8.4566220077E+00
            fcart      1.5742551270E-07  6.6174449004E-24 -6.6174449004E-24
                      -1.5742551270E-07 -6.6174449004E-24  6.6174449004E-24
-          fftalg         312
           ionmov           2
              ixc          11
              kpt     -2.50000000E-01  5.00000000E-01  0.00000000E+00
                       5.00000000E-01 -2.50000000E-01  0.00000000E+00
                      -2.50000000E-01  0.00000000E+00  0.00000000E+00
                       0.00000000E+00 -2.50000000E-01  0.00000000E+00
                       2.50000000E-01 -2.50000000E-01  2.50000000E-01
                       5.00000000E-01  0.00000000E+00  2.50000000E-01
         kptrlatt        2   -2    2     -2    2    2     -2   -2    2
          kptrlen      2.26767136E+01
P           mkmem           1
            natom           2
            nband           6
            ngfft          32      32      32
             nkpt           6
             nsym           8
            ntime          15
           ntypat           1
              occ      2.000000  2.000000  2.000000  2.000000  0.000000  0.000000
          optcell           2
            rprim      7.0710691793E-01  7.0710664444E-01  7.1012290702E-08
                       0.0000000000E+00  7.0710678119E-01  7.0710678119E-01
                       7.0710691793E-01  7.1012290696E-08  7.0710664444E-01
           shiftk      5.00000000E-01  5.00000000E-01  5.00000000E-01
          spgroup          74
           strten      1.5225734503E-09  2.2952204742E-10  2.2952204785E-10
                       1.4764012894E-09  0.0000000000E+00  0.0000000000E+00
           symrel      1  0  0   0  1  0   0  0  1      -1  0  0   0 -1  0   0  0 -1
                       0 -1  1   0 -1  0   1 -1  0       0  1 -1   0  1  0  -1  1  0
                       0  0  1   0  1  0   1  0  0       0  0 -1   0 -1  0  -1  0  0
                       1 -1  0   0 -1  0   0 -1  1      -1  1  0   0  1  0   0  1 -1
            tnons      0.0000000  0.0000000  0.0000000     0.2400000  0.2600000  0.2400000
                       0.0000000  0.0000000  0.0000000     0.2400000  0.2600000  0.2400000
                       0.0000000  0.0000000  0.0000000     0.2400000  0.2600000  0.2400000
                       0.0000000  0.0000000  0.0000000     0.2400000  0.2600000  0.2400000
           tolmxf      1.00000000E-08
           tolvrs      1.00000000E-10
            typat      1  1
              wtk        0.25000    0.25000    0.12500    0.12500    0.12500    0.12500
           xangst     -2.7383693362E-02  2.0217555175E-17  2.3867379294E-17
                       1.3417892370E+00  1.3691720493E+00  1.3691720493E+00
            xcart     -5.1747680960E-02  3.8205642357E-17  4.5102810375E-17
                       2.5356141860E+00  2.5873602019E+00  2.5873602019E+00
             xred     -5.0000446502E-03  5.0000446502E-03 -5.0000446502E-03
                       2.4500004465E-01  2.5499995535E-01  2.4500004465E-01
            znucl       14.00000

- Timing analysis has been suppressed with timopt=0

 Suggested references for the acknowledgment of ABINIT usage.

 Calculation completed.
.Delivered  13 WARNINGs and  15 COMMENTs to log file.

External calculated distance:
distance  4.481440288495515