.Version 8.11.13 of ABINIT

 ABINIT is a project of the Universite Catholique de Louvain,
 Corning Inc. and other collaborators, see ~abinit/doc/developers/contributors.txt .
 acknowledgments of the ABINIT effort.

.Starting date : Fri 10 Jan 2020.
- ( at 11h50 )

 === Build Information ===
  Version       : 8.11.13
  Build target  : x86_64_linux_intel14.0
  Build date    : 20191206

 === Optimizations ===
  Debug level        : basic
  Optimization level : standard
  Architecture       : intel_xeon

 === Multicore ===
  Parallel build : yes
  Parallel I/O   : yes
  openMP support : no
  GPU support    : no

 === Connectors / Fallbacks ===
  Connectors on : yes
  Fallbacks on  : yes
  FFT flavor    : fftw3
  LINALG flavor : mkl
  TIMER flavor  : abinit
  TRIO flavor   : netcdf

 === Experimental features ===
  Exports             : no
  GW double-precision : yes

 Default optimizations:
   -O3

 Optimizations for 43_ptgroups:
   -O0

 CPP options activated during the build:

                  CC_INTEL                   CXX_GNU                  FC_INTEL

 HAVE_FC_ALLOCATABLE_DT...             HAVE_FC_ASYNC  HAVE_FC_COMMAND_ARGUMENT

        HAVE_FC_CONTIGUOUS           HAVE_FC_CPUTIME             HAVE_FC_ETIME

              HAVE_FC_EXIT             HAVE_FC_FLUSH             HAVE_FC_GAMMA

            HAVE_FC_GETENV            HAVE_FC_GETPID   HAVE_FC_IEEE_ARITHMETIC

   HAVE_FC_IEEE_EXCEPTIONS             HAVE_FC_IOMSG     HAVE_FC_ISO_C_BINDING

  HAVE_FC_ISO_FORTRAN_2008        HAVE_FC_LONG_LINES        HAVE_FC_MOVE_ALLOC

  HAVE_FC_ON_THE_FLY_SHAPE           HAVE_FC_PRIVATE         HAVE_FC_PROTECTED

           HAVE_FC_SHIFTLR         HAVE_FC_STREAM_IO            HAVE_FC_SYSTEM

                  HAVE_FFT            HAVE_FFT_FFTW3              HAVE_FFT_MPI

           HAVE_FFT_SERIAL               HAVE_GW_DPC        HAVE_LIBPAW_ABINIT

         HAVE_LINALG_AXPBY        HAVE_LINALG_GEMM3M  HAVE_LINALG_MKL_IMATCOPY

   HAVE_LINALG_MKL_OMATADD  HAVE_LINALG_MKL_OMATCOPY   HAVE_LINALG_MKL_THREADS

        HAVE_LINALG_SERIAL                  HAVE_MPI                 HAVE_MPI2

       HAVE_MPI_IALLREDUCE        HAVE_MPI_IALLTOALL       HAVE_MPI_IALLTOALLV

           HAVE_MPI_IBCAST         HAVE_MPI_IGATHERV        HAVE_MPI_INTEGER16

               HAVE_MPI_IO HAVE_MPI_TYPE_CREATE_S...               HAVE_NETCDF

           HAVE_NETCDF_MPI                HAVE_NUMPY             HAVE_OS_LINUX

         HAVE_TIMER_ABINIT                  HAVE_XML              USE_MACROAVE

- input  file    -> opt.in
- output file    -> opt.out
- root for input  files -> opti
- root for output files -> opto

-instrng: 56 lines of input have been read from file opt.in

 Please give name of formatted atomic psp file
 For atom type 1, psp file is /CECI/home/ucl/naps/jovbever/.PsP/Si/Si.psp8
  read the values zionpsp=  4.0 , pspcod=   8 , lmax=   2

 inpspheads: deduce mpsang = 3, n1xccc = 2501.

invars1m : enter jdtset= 0

 symlatt: the Bravais lattice is cF (face-centered cubic)
  xred   is defined in input file
 ingeo: takes atomic coordinates from input array xred

 symlatt: the Bravais lattice is cF (face-centered cubic)

 symlatt: the Bravais lattice is cF (face-centered cubic)
 symspgr: spgroup= 227  Fd -3 m   (=Oh^7)
 symspgr: optical characteristics = isotropic

--- !WARNING
src_file: m_mpinfo.F90
src_line: 2292
message: |
    nkpt*nsppol (10) is not a multiple of nproc_kpt (6)
    The k-point parallelisation is inefficient. (Ignore this warning if this is not a GS run)
...

 For input ecut=  4.410000E+00 best grid ngfft=      15      15      15
       max ecut=  4.573038E+00

 ==== FFT mesh ====
  FFT mesh divisions ........................    15   15   15
  Augmented FFT divisions ...................    15   15   15
  FFT algorithm .............................   312
  FFT cache size ............................    16
 getmpw: optimal value of mpw= 128

 Symmetries : space group Fd -3 m (#227); Bravais cF (face-center cubic)

 getdim_nloc : deduce lmnmax  =  18, lnmax  =   6,
                      lmnmaxso=  18, lnmaxso=   6.
     intxc =       0    ionmov =       2      iscf =       7    lmnmax =       6
     lnmax =       6     mgfft =      15  mpssoang =       3    mqgrid =    3001
     natom =       2  nloc_mem =       1    nspden =       1   nspinor =       1
    nsppol =       1      nsym =      48    n1xccc =    2501    ntypat =       1
    occopt =       1   xclevel =       2
-    mband =           6        mffmem =           1         mkmem =           2
       mpw =         128          nfft =        3375          nkpt =          10
  Rough estimation (10% accuracy) of disk space for files :

 The job will continue.
------------- Echo of variables that govern the present computation ------------
-
- outvars: echo of selected default values
-   iomode0 =  0 , fftalg0 =312 , wfoptalg0 =  0
-
- outvars: echo of global parameters not present in the input file
-  max_nthreads =    0
-
 -outvars: echo values of preprocessed input variables --------

 These variables are accessible in NetCDF format (opto_OUT.nc)

            acell      1.0335941857E+01  1.0335941857E+01  1.0335941857E+01 Bohr
              amu      2.80855000E+01
          dilatmx      1.05000000E+00
             ecut      4.00000000E+00 Hartree
           ecutsm      5.00000000E-01 Hartree
-          fftalg         312
           ionmov           2
              ixc          11
              kpt     -1.25000000E-01 -2.50000000E-01  0.00000000E+00
                      -1.25000000E-01  5.00000000E-01  0.00000000E+00
                      -2.50000000E-01 -3.75000000E-01  0.00000000E+00
                      -1.25000000E-01 -3.75000000E-01  1.25000000E-01
                      -1.25000000E-01  2.50000000E-01  0.00000000E+00
                      -2.50000000E-01  3.75000000E-01  0.00000000E+00
                      -3.75000000E-01  5.00000000E-01  0.00000000E+00
                      -2.50000000E-01  5.00000000E-01  1.25000000E-01
                      -1.25000000E-01  0.00000000E+00  0.00000000E+00
                      -3.75000000E-01  0.00000000E+00  0.00000000E+00
         kptrlatt        4   -4    4     -4    4    4     -4   -4    4
          kptrlen      4.13437674E+01
P           mkmem           2
            natom           2
            nband           6
            ngfft          15      15      15
             nkpt          10
             nsym          48
            ntime          15
           ntypat           1
              occ      2.000000  2.000000  2.000000  2.000000  0.000000  0.000000
          optcell           2
            rprim      5.0000000000E-01  5.0000000000E-01  0.0000000000E+00
                       0.0000000000E+00  5.0000000000E-01  5.0000000000E-01
                       5.0000000000E-01  0.0000000000E+00  5.0000000000E-01
           shiftk      5.00000000E-01  5.00000000E-01  5.00000000E-01
          spgroup         227
           symrel      1  0  0   0  1  0   0  0  1      -1  0  0   0 -1  0   0  0 -1
                       0 -1  1   0 -1  0   1 -1  0       0  1 -1   0  1  0  -1  1  0
                      -1  0  0  -1  0  1  -1  1  0       1  0  0   1  0 -1   1 -1  0
                       0  1 -1   1  0 -1   0  0 -1       0 -1  1  -1  0  1   0  0  1
                      -1  0  0  -1  1  0  -1  0  1       1  0  0   1 -1  0   1  0 -1
                       0 -1  1   1 -1  0   0 -1  0       0  1 -1  -1  1  0   0  1  0
                       1  0  0   0  0  1   0  1  0      -1  0  0   0  0 -1   0 -1  0
                       0  1 -1   0  0 -1   1  0 -1       0 -1  1   0  0  1  -1  0  1
                      -1  0  1  -1  1  0  -1  0  0       1  0 -1   1 -1  0   1  0  0
                       0 -1  0   1 -1  0   0 -1  1       0  1  0  -1  1  0   0  1 -1
                       1  0 -1   0  0 -1   0  1 -1      -1  0  1   0  0  1   0 -1  1
                       0  1  0   0  0  1   1  0  0       0 -1  0   0  0 -1  -1  0  0
                       1  0 -1   0  1 -1   0  0 -1      -1  0  1   0 -1  1   0  0  1
                       0 -1  0   0 -1  1   1 -1  0       0  1  0   0  1 -1  -1  1  0
                      -1  0  1  -1  0  0  -1  1  0       1  0 -1   1  0  0   1 -1  0
                       0  1  0   1  0  0   0  0  1       0 -1  0  -1  0  0   0  0 -1
                       0  0 -1   0  1 -1   1  0 -1       0  0  1   0 -1  1  -1  0  1
                       1 -1  0   0 -1  1   0 -1  0      -1  1  0   0  1 -1   0  1  0
                       0  0  1   1  0  0   0  1  0       0  0 -1  -1  0  0   0 -1  0
                      -1  1  0  -1  0  0  -1  0  1       1 -1  0   1  0  0   1  0 -1
                       0  0  1   0  1  0   1  0  0       0  0 -1   0 -1  0  -1  0  0
                       1 -1  0   0 -1  0   0 -1  1      -1  1  0   0  1  0   0  1 -1
                       0  0 -1   1  0 -1   0  1 -1       0  0  1  -1  0  1   0 -1  1
                      -1  1  0  -1  0  1  -1  0  0       1 -1  0   1  0 -1   1  0  0
            tnons      0.0000000  0.0000000  0.0000000     0.2500000  0.2500000  0.2500000
                       0.0000000  0.0000000  0.0000000     0.2500000  0.2500000  0.2500000
                       0.0000000  0.0000000  0.0000000     0.2500000  0.2500000  0.2500000
                       0.0000000  0.0000000  0.0000000     0.2500000  0.2500000  0.2500000
                       0.0000000  0.0000000  0.0000000     0.2500000  0.2500000  0.2500000
                       0.0000000  0.0000000  0.0000000     0.2500000  0.2500000  0.2500000
                       0.0000000  0.0000000  0.0000000     0.2500000  0.2500000  0.2500000
                       0.0000000  0.0000000  0.0000000     0.2500000  0.2500000  0.2500000
                       0.0000000  0.0000000  0.0000000     0.2500000  0.2500000  0.2500000
                       0.0000000  0.0000000  0.0000000     0.2500000  0.2500000  0.2500000
                       0.0000000  0.0000000  0.0000000     0.2500000  0.2500000  0.2500000
                       0.0000000  0.0000000  0.0000000     0.2500000  0.2500000  0.2500000
                       0.0000000  0.0000000  0.0000000     0.2500000  0.2500000  0.2500000
                       0.0000000  0.0000000  0.0000000     0.2500000  0.2500000  0.2500000
                       0.0000000  0.0000000  0.0000000     0.2500000  0.2500000  0.2500000
                       0.0000000  0.0000000  0.0000000     0.2500000  0.2500000  0.2500000
                       0.0000000  0.0000000  0.0000000     0.2500000  0.2500000  0.2500000
                       0.0000000  0.0000000  0.0000000     0.2500000  0.2500000  0.2500000
                       0.0000000  0.0000000  0.0000000     0.2500000  0.2500000  0.2500000
                       0.0000000  0.0000000  0.0000000     0.2500000  0.2500000  0.2500000
                       0.0000000  0.0000000  0.0000000     0.2500000  0.2500000  0.2500000
                       0.0000000  0.0000000  0.0000000     0.2500000  0.2500000  0.2500000
                       0.0000000  0.0000000  0.0000000     0.2500000  0.2500000  0.2500000
                       0.0000000  0.0000000  0.0000000     0.2500000  0.2500000  0.2500000
           tolmxf      1.00000000E-08
[...]
  max grad (force/stress) = 1.7820E-08 > tolmxf= 1.0000E-08 ha/bohr (free atoms)

[...]

 Difference of energy with previous step (new-old):
           Absolute (Ha)=-8.88178E-15
           Relative     =-1.06020E-15
 fconv : at Broyd/MD step  14, gradients have not converged yet.
  max grad (force/stress) = 3.2917E-08 > tolmxf= 1.0000E-08 ha/bohr (free atoms)

 EXIT:           1           1
 mover: previous time step took  0.32 [s]

--- Iteration: (15/15) Internal Cycle: (1/1)

 Cartesian coordinates (xcart) [bohr]
 -8.60344019387204E-27  7.10002973927218E-26  1.04650529802019E-25
  2.57872273836033E+00  2.57872273836033E+00  2.57872273836033E+00
 Reduced coordinates (xred)
 -4.09637608326555E-27  1.78629389511035E-26  2.42821686903718E-27
  2.50000000000000E-01  2.50000000000000E-01  2.50000000000000E-01
 Scale of Primitive Cell (acell) [bohr]
  7.29372934037814E+00  7.29372934037814E+00  7.29372934037814E+00
 Real space primitive translations (rprimd) [bohr]
  5.15744547672067E+00  5.15744547672067E+00  0.00000000000000E+00
  0.00000000000000E+00  5.15744547672067E+00  5.15744547672067E+00
  5.15744547672067E+00  0.00000000000000E+00  5.15744547672067E+00
 Unitary Cell Volume (ucvol) [Bohr^3]=  2.74368299708745E+02
 Angles (23,13,12)= [degrees]
  6.00000000000000E+01  6.00000000000000E+01  6.00000000000000E+01
 Lengths [Bohr]
  7.29372934037814E+00  7.29372934037814E+00  7.29372934037814E+00

---SELF-CONSISTENT-FIELD CONVERGENCE--------------------------------------------

 getcut: wavevector=  0.0000  0.0000  0.0000  ngfft=  15  15  15
         ecut(hartree)=      4.000   => boxcut(ratio)=   2.14283

 ITER STEP NUMBER     1
 vtorho: nnsclo_now=2, note that nnsclo,dbl_nnsclo,istep=0 0 1
 Total charge density [el/Bohr^3]
      Maximum=    8.9184E-02  at reduced coord.    0.1333    0.1333    0.6000
      Minimum=    3.3222E-03  at reduced coord.    0.7333    0.7333    0.7333
   Integrated=    8.0000E+00
 ETOT  1  -8.3774282153793    -8.377E+00 8.977E-13 7.906E-13
 scprqt: <Vxc>= -3.3965380E-01 hartree

 At SCF step    1       vres2   =  7.91E-13 < tolvrs=  1.00E-10 =>converged.

[...]

   fftdatar_write: About to write data to: opto_TIM15_DEN with iomode: IO_MODE_FORTRAN
 Write iteration in HIST netCDF file

---OUTPUT-----------------------------------------------------------------------

 Cartesian coordinates (xcart) [bohr]
 -8.60344019387204E-27  7.10002973927218E-26  1.04650529802019E-25
  2.57872273836033E+00  2.57872273836033E+00  2.57872273836033E+00
 Reduced coordinates (xred)
 -4.09637608326555E-27  1.78629389511035E-26  2.42821686903718E-27
  2.50000000000000E-01  2.50000000000000E-01  2.50000000000000E-01
 Cartesian forces (fcart) [Ha/bohr]; max,rms= 3.34137E-27 2.72822E-27 (free atoms)
  0.00000000000000E+00 -3.34136919255335E-27  3.34136919255335E-27
  0.00000000000000E+00  3.34136919255335E-27 -3.34136919255335E-27
 Reduced forces (fred)
  1.72329294281881E-26  0.00000000000000E+00 -1.72329294281881E-26
 -1.72329294281881E-26  0.00000000000000E+00  1.72329294281881E-26
 Scale of Primitive Cell (acell) [bohr]
  7.29372934037814E+00  7.29372934037814E+00  7.29372934037814E+00
 Real space primitive translations (rprimd) [bohr]
  5.15744547672067E+00  5.15744547672067E+00  0.00000000000000E+00
  0.00000000000000E+00  5.15744547672067E+00  5.15744547672067E+00
  5.15744547672067E+00  0.00000000000000E+00  5.15744547672067E+00
 Unitary Cell Volume (ucvol) [Bohr^3]=  2.74368299708745E+02
 Angles (23,13,12)= [degrees]
  6.00000000000000E+01  6.00000000000000E+01  6.00000000000000E+01
 Lengths [Bohr]
  7.29372934037814E+00  7.29372934037814E+00  7.29372934037814E+00
 Stress tensor in cartesian coordinates (strten) [Ha/bohr^3]
  1.35660678003691E-10  0.00000000000000E+00  0.00000000000000E+00
  0.00000000000000E+00  1.35660677570010E-10  0.00000000000000E+00
  0.00000000000000E+00  0.00000000000000E+00  1.35660678437372E-10
 Total energy (etotal) [Ha]= -8.37742821537931E+00

 Difference of energy with previous step (new-old):
           Absolute (Ha)= 1.77636E-14
           Relative     = 2.12041E-15

 fconv : WARNING -
  ntime=   15 was not enough Broyd/MD steps to converge gradients:
  max grad (force/stress) = 1.3566E-08 > tolmxf= 1.0000E-08 ha/bohr (free atoms)

--- !RelaxConvergenceWarning
message: |

     fconv : WARNING -
      ntime=   15 was not enough Broyd/MD steps to converge gradients:
      max grad (force/stress) = 1.3566E-08 > tolmxf= 1.0000E-08 ha/bohr (free atoms)

...

 ----iterations are completed or convergence reached----

 === Gap info ===
  >>>> For spin  1
   Minimum direct gap =   3.2155 [eV], located at k-point      :  -0.1250  0.0000  0.0000
   Fundamental gap    =   1.5564 [eV], Top of valence bands at :  -0.1250  0.0000  0.0000
                                       Bottom of conduction at :  -0.3750  0.5000  0.0000
 Mean square residual over all n,k,spin=   18.261E-15; max=  89.768E-14
  -0.1250 -0.2500  0.0000    1  2.39870E-17 kpt; spin; max resid(k); each band:
  2.49E-21 1.38E-20 8.34E-22 1.93E-20 1.73E-20 2.40E-17
  -0.1250  0.5000  0.0000    1  4.03242E-20 kpt; spin; max resid(k); each band:
  7.40E-21 3.90E-21 1.49E-21 5.48E-21 3.18E-21 4.03E-20
  -0.2500 -0.3750  0.0000    1  1.94796E-19 kpt; spin; max resid(k); each band:
  2.20E-21 1.58E-21 9.17E-21 3.94E-22 4.67E-21 1.95E-19
  -0.1250 -0.3750  0.1250    1  2.97849E-18 kpt; spin; max resid(k); each band:
  3.73E-19 7.29E-20 8.49E-19 3.25E-19 1.87E-18 2.98E-18
  -0.1250  0.2500  0.0000    1  6.90595E-18 kpt; spin; max resid(k); each band:
  1.33E-18 2.32E-18 4.98E-19 1.23E-22 4.57E-18 6.91E-18
  -0.2500  0.3750  0.0000    1  7.01533E-18 kpt; spin; max resid(k); each band:
  6.02E-20 1.52E-18 3.32E-18 3.76E-23 7.02E-18 1.10E-20
  -0.3750  0.5000  0.0000    1  1.81759E-18 kpt; spin; max resid(k); each band:
  1.82E-18 7.44E-19 1.90E-19 5.77E-23 3.05E-20 9.90E-19
  -0.2500  0.5000  0.1250    1  4.42165E-18 kpt; spin; max resid(k); each band:
  1.31E-21 1.15E-20 1.25E-20 8.91E-22 3.33E-19 4.42E-18
  -0.1250  0.0000  0.0000    1  8.97675E-13 kpt; spin; max resid(k); each band:
  1.76E-21 5.51E-18 1.86E-22 3.79E-21 8.98E-13 1.94E-13
  -0.3750  0.0000  0.0000    1  3.62807E-15 kpt; spin; max resid(k); each band:
  9.40E-21 1.28E-20 1.67E-21 1.88E-21 1.63E-20 3.63E-15

   outwf: writing wavefunctions to: opto_WFK with iomode: IO_MODE_FORTRAN_MASTER
 prteigrs : about to open file opto_EIG
 Fermi (or HOMO) energy (hartree) =   0.14410   Average Vxc (hartree)=  -0.33965
 Eigenvalues (hartree) for nkpt=  10  k points:
 kpt#   1, nband=  6, wtk=  0.09375, kpt= -0.1250 -0.2500  0.0000 (reduced coord)
  -0.23623    0.04758    0.10616    0.11247    0.24274    0.30548
 kpt#   2, nband=  6, wtk=  0.09375, kpt= -0.1250  0.5000  0.0000 (reduced coord)
  -0.17440   -0.08209    0.07507    0.09648    0.25233    0.29666
 kpt#   3, nband=  6, wtk=  0.09375, kpt= -0.2500 -0.3750  0.0000 (reduced coord)
  -0.19858   -0.01064    0.05869    0.07312    0.21735    0.27639
 kpt#   4, nband=  6, wtk=  0.18750, kpt= -0.1250 -0.3750  0.1250 (reduced coord)
  -0.18307   -0.04571    0.03694    0.08410    0.27231    0.29722
 kpt#   5, nband=  6, wtk=  0.09375, kpt= -0.1250  0.2500  0.0000 (reduced coord)
  -0.21888   -0.00328    0.07303    0.12543    0.27363    0.29339
 kpt#   6, nband=  6, wtk=  0.09375, kpt= -0.2500  0.3750  0.0000 (reduced coord)
  -0.15652   -0.07592    0.01195    0.08466    0.23571    0.36284
 kpt#   7, nband=  6, wtk=  0.09375, kpt= -0.3750  0.5000  0.0000 (reduced coord)
  -0.14553   -0.07869    0.02946    0.05560    0.20129    0.24002
 kpt#   8, nband=  6, wtk=  0.18750, kpt= -0.2500  0.5000  0.1250 (reduced coord)
  -0.13846   -0.08377    0.00774    0.04658    0.25362    0.32311
 kpt#   9, nband=  6, wtk=  0.03125, kpt= -0.1250  0.0000  0.0000 (reduced coord)
  -0.25699    0.10255    0.14410    0.14410    0.26227    0.26628
 kpt#  10, nband=  6, wtk=  0.03125, kpt= -0.3750  0.0000  0.0000 (reduced coord)
  -0.20171   -0.05260    0.11388    0.11388    0.24335    0.28726
 Total charge density [el/Bohr^3]
      Maximum=    8.9184E-02  at reduced coord.    0.1333    0.1333    0.6000
 Next maximum=    8.9184E-02  at reduced coord.    0.1333    0.6000    0.1333
      Minimum=    3.3222E-03  at reduced coord.    0.7333    0.7333    0.7333
 Next minimum=    3.3222E-03  at reduced coord.    0.8000    0.7333    0.7333
   Integrated=    8.0000E+00

 Cartesian components of stress tensor (hartree/bohr^3)
  sigma(1 1)=  1.35660678E-10  sigma(3 2)=  0.00000000E+00
  sigma(2 2)=  1.35660678E-10  sigma(3 1)=  0.00000000E+00
  sigma(3 3)=  1.35660678E-10  sigma(2 1)=  0.00000000E+00

-Cartesian components of stress tensor (GPa)         [Pressure= -3.9913E-06 GPa]
- sigma(1 1)=  3.99127427E-06  sigma(3 2)=  0.00000000E+00
- sigma(2 2)=  3.99127426E-06  sigma(3 1)=  0.00000000E+00
- sigma(3 3)=  3.99127429E-06  sigma(2 1)=  0.00000000E+00

== END DATASET(S) ==============================================================

 -outvars: echo values of variables after computation  --------

 These variables are accessible in NetCDF format (opto_OUT.nc)

            acell      7.2937293404E+00  7.2937293404E+00  7.2937293404E+00 Bohr
              amu      2.80855000E+01
          dilatmx      1.05000000E+00
             ecut      4.00000000E+00 Hartree
           ecutsm      5.00000000E-01 Hartree
           etotal     -8.3774282154E+00
            fcart      0.0000000000E+00 -3.3413691926E-27  3.3413691926E-27
                       0.0000000000E+00  3.3413691926E-27 -3.3413691926E-27
-          fftalg         312
           ionmov           2
              ixc          11
              kpt     -1.25000000E-01 -2.50000000E-01  0.00000000E+00
                      -1.25000000E-01  5.00000000E-01  0.00000000E+00
                      -2.50000000E-01 -3.75000000E-01  0.00000000E+00
                      -1.25000000E-01 -3.75000000E-01  1.25000000E-01
                      -1.25000000E-01  2.50000000E-01  0.00000000E+00
                      -2.50000000E-01  3.75000000E-01  0.00000000E+00
                      -3.75000000E-01  5.00000000E-01  0.00000000E+00
                      -2.50000000E-01  5.00000000E-01  1.25000000E-01
                      -1.25000000E-01  0.00000000E+00  0.00000000E+00
                      -3.75000000E-01  0.00000000E+00  0.00000000E+00
         kptrlatt        4   -4    4     -4    4    4     -4   -4    4
          kptrlen      4.13437674E+01
P           mkmem           2
            natom           2
            nband           6
            ngfft          15      15      15
             nkpt          10
             nsym          48
            ntime          15
           ntypat           1
              occ      2.000000  2.000000  2.000000  2.000000  0.000000  0.000000
          optcell           2
            rprim      7.0710678119E-01  7.0710678119E-01  0.0000000000E+00
                       0.0000000000E+00  7.0710678119E-01  7.0710678119E-01
                       7.0710678119E-01  0.0000000000E+00  7.0710678119E-01
           shiftk      5.00000000E-01  5.00000000E-01  5.00000000E-01
          spgroup         227
           strten      1.3566067800E-10  1.3566067757E-10  1.3566067844E-10
                       0.0000000000E+00  0.0000000000E+00  0.0000000000E+00
           symrel      1  0  0   0  1  0   0  0  1      -1  0  0   0 -1  0   0  0 -1
                       0 -1  1   0 -1  0   1 -1  0       0  1 -1   0  1  0  -1  1  0
                      -1  0  0  -1  0  1  -1  1  0       1  0  0   1  0 -1   1 -1  0
                       0  1 -1   1  0 -1   0  0 -1       0 -1  1  -1  0  1   0  0  1
                      -1  0  0  -1  1  0  -1  0  1       1  0  0   1 -1  0   1  0 -1
                       0 -1  1   1 -1  0   0 -1  0       0  1 -1  -1  1  0   0  1  0
                       1  0  0   0  0  1   0  1  0      -1  0  0   0  0 -1   0 -1  0
                       0  1 -1   0  0 -1   1  0 -1       0 -1  1   0  0  1  -1  0  1
                      -1  0  1  -1  1  0  -1  0  0       1  0 -1   1 -1  0   1  0  0
                       0 -1  0   1 -1  0   0 -1  1       0  1  0  -1  1  0   0  1 -1
                       1  0 -1   0  0 -1   0  1 -1      -1  0  1   0  0  1   0 -1  1
                       0  1  0   0  0  1   1  0  0       0 -1  0   0  0 -1  -1  0  0
                       1  0 -1   0  1 -1   0  0 -1      -1  0  1   0 -1  1   0  0  1
                       0 -1  0   0 -1  1   1 -1  0       0  1  0   0  1 -1  -1  1  0
                      -1  0  1  -1  0  0  -1  1  0       1  0 -1   1  0  0   1 -1  0
                       0  1  0   1  0  0   0  0  1       0 -1  0  -1  0  0   0  0 -1
                       0  0 -1   0  1 -1   1  0 -1       0  0  1   0 -1  1  -1  0  1
                       1 -1  0   0 -1  1   0 -1  0      -1  1  0   0  1 -1   0  1  0
                       0  0  1   1  0  0   0  1  0       0  0 -1  -1  0  0   0 -1  0
                      -1  1  0  -1  0  0  -1  0  1       1 -1  0   1  0  0   1  0 -1
                       0  0  1   0  1  0   1  0  0       0  0 -1   0 -1  0  -1  0  0
                       1 -1  0   0 -1  0   0 -1  1      -1  1  0   0  1  0   0  1 -1
                       0  0 -1   1  0 -1   0  1 -1       0  0  1  -1  0  1   0 -1  1
                      -1  1  0  -1  0  1  -1  0  0       1 -1  0   1  0 -1   1  0  0
            tnons      0.0000000  0.0000000  0.0000000     0.2500000  0.2500000  0.2500000
                       0.0000000  0.0000000  0.0000000     0.2500000  0.2500000  0.2500000
                       0.0000000  0.0000000  0.0000000     0.2500000  0.2500000  0.2500000
                       0.0000000  0.0000000  0.0000000     0.2500000  0.2500000  0.2500000
                       0.0000000  0.0000000  0.0000000     0.2500000  0.2500000  0.2500000
                       0.0000000  0.0000000  0.0000000     0.2500000  0.2500000  0.2500000
                       0.0000000  0.0000000  0.0000000     0.2500000  0.2500000  0.2500000
                       0.0000000  0.0000000  0.0000000     0.2500000  0.2500000  0.2500000
                       0.0000000  0.0000000  0.0000000     0.2500000  0.2500000  0.2500000
                       0.0000000  0.0000000  0.0000000     0.2500000  0.2500000  0.2500000
                       0.0000000  0.0000000  0.0000000     0.2500000  0.2500000  0.2500000
                       0.0000000  0.0000000  0.0000000     0.2500000  0.2500000  0.2500000
                       0.0000000  0.0000000  0.0000000     0.2500000  0.2500000  0.2500000
                       0.0000000  0.0000000  0.0000000     0.2500000  0.2500000  0.2500000
                       0.0000000  0.0000000  0.0000000     0.2500000  0.2500000  0.2500000
                       0.0000000  0.0000000  0.0000000     0.2500000  0.2500000  0.2500000
                       0.0000000  0.0000000  0.0000000     0.2500000  0.2500000  0.2500000
                       0.0000000  0.0000000  0.0000000     0.2500000  0.2500000  0.2500000
                       0.0000000  0.0000000  0.0000000     0.2500000  0.2500000  0.2500000
                       0.0000000  0.0000000  0.0000000     0.2500000  0.2500000  0.2500000
                       0.0000000  0.0000000  0.0000000     0.2500000  0.2500000  0.2500000
                       0.0000000  0.0000000  0.0000000     0.2500000  0.2500000  0.2500000
                       0.0000000  0.0000000  0.0000000     0.2500000  0.2500000  0.2500000
                       0.0000000  0.0000000  0.0000000     0.2500000  0.2500000  0.2500000
           tolmxf      1.00000000E-08
           tolvrs      1.00000000E-10
            typat      1  1
              wtk        0.09375    0.09375    0.09375    0.18750    0.09375    0.09375
                         0.09375    0.18750    0.03125    0.03125
           xangst     -4.5527444661E-27  3.7571739183E-26  5.5378675238E-26
                       1.3646013004E+00  1.3646013004E+00  1.3646013004E+00
            xcart     -8.6034401939E-27  7.1000297393E-26  1.0465052980E-25
                       2.5787227384E+00  2.5787227384E+00  2.5787227384E+00
             xred     -4.0963760833E-27  1.7862938951E-26  2.4282168690E-27
                       2.5000000000E-01  2.5000000000E-01  2.5000000000E-01
            znucl       14.00000

 Suggested references for the acknowledgment of ABINIT usage.

 Calculation completed.
.Delivered   1 WARNINGs and   0 COMMENTs to log file.

--- !FinalSummary
program: abinit
version: 8.11.13
start_datetime: Fri Jan 10 11:50:33 2020
end_datetime: Fri Jan 10 11:50:40 2020
overall_cpu_time:          33.6
overall_wall_time:          42.2
exit_requested_by_user: no
timelimit: 0
pseudos:
    Si  : 45c393525680abc7b25445b8ec62bf83
usepaw: 0
mpi_procs: 6
omp_threads: 1
num_warnings: 1
num_comments: 0
...