.Version 8.11.13 of ABINIT

 ABINIT is a project of the Universite Catholique de Louvain,
 Corning Inc. and other collaborators, see ~abinit/doc/developers/contributors.txt .
 acknowledgments of the ABINIT effort.

.Starting date : Thu 12 Dec 2019.
- ( at 17h35 )

- input  file    -> sp.in
- output file    -> sp.out
- root for input  files -> spi
- root for output files -> spo

 Symmetries : space group Pn m a (# 62); Bravais oP (primitive ortho.)
     intxc =       0    ionmov =       0      iscf =       7    lmnmax =       6
     lnmax =       6     mgfft =      45  mpssoang =       3    mqgrid =    3001
     natom =      20  nloc_mem =       1    nspden =       1   nspinor =       1
    nsppol =       1      nsym =       8    n1xccc =    2501    ntypat =       3
    occopt =       1   xclevel =       1
-    mband =          80        mffmem =           1         mkmem =           1
       mpw =        2763          nfft =       46080          nkpt =           1
  Rough estimation (10% accuracy) of disk space for files :

------------- Echo of variables that govern the present computation ------------
-
- outvars: echo of selected default values
-   iomode0 =  0 , fftalg0 =312 , wfoptalg0 =  0
-
- outvars: echo of global parameters not present in the input file
-  max_nthreads =    0
-
 -outvars: echo values of preprocessed input variables --------
            acell      5.4040000000E+00  5.5130000000E+00  7.6970000000E+00 Bohr
              amu      4.00780000E+01  4.78800000E+01  1.59994000E+01
             ecut      4.00000000E+01 Hartree
-          fftalg         312
              kpt      2.50000000E-01  2.50000000E-01  2.50000000E-01
         kptrlatt        2    0    0      0    2    0      0    0    2
          kptrlen      1.08080000E+01
P           mkmem           1
            natom          20
            nband          80
            ngfft          32      32      45
             nkpt           1
             nsym           8
           ntypat           3
              occ      2.000000  2.000000  2.000000  2.000000  2.000000  2.000000
                       2.000000  2.000000  2.000000  2.000000  2.000000  2.000000
                       2.000000  2.000000  2.000000  2.000000  2.000000  2.000000
                       2.000000  2.000000  2.000000  2.000000  2.000000  2.000000
                       2.000000  2.000000  2.000000  2.000000  2.000000  2.000000
                       2.000000  2.000000  2.000000  2.000000  2.000000  2.000000
                       2.000000  2.000000  2.000000  2.000000  2.000000  2.000000
                       2.000000  2.000000  2.000000  2.000000  2.000000  2.000000
                       2.000000  2.000000  2.000000  2.000000  2.000000  2.000000
                       2.000000  2.000000  2.000000  2.000000  2.000000  2.000000
                       2.000000  2.000000  2.000000  2.000000  2.000000  2.000000
                       2.000000  2.000000  2.000000  2.000000  2.000000  2.000000
                       2.000000  2.000000  2.000000  2.000000  2.000000  2.000000
                       2.000000  2.000000
           shiftk      5.00000000E-01  5.00000000E-01  5.00000000E-01
          spgroup          62
           symrel      1  0  0   0  1  0   0  0  1      -1  0  0   0 -1  0   0  0 -1
                      -1  0  0   0  1  0   0  0 -1       1  0  0   0 -1  0   0  0  1
                      -1  0  0   0 -1  0   0  0  1       1  0  0   0  1  0   0  0 -1
                       1  0  0   0 -1  0   0  0 -1      -1  0  0   0  1  0   0  0  1
            tnons      0.0000000  0.0000000  0.0000000     0.0000000  0.0000000  0.0000000
                       0.5000000  0.5000000  0.5000000     0.5000000  0.5000000  0.5000000
                       0.0000000  0.0000000  0.5000000     0.0000000  0.0000000  0.5000000
                       0.5000000  0.5000000  0.0000000     0.5000000  0.5000000  0.0000000
           toldfe      1.00000000E-10 Hartree
            typat      1  1  1  1  2  2  2  2  3  3  3  3  3  3  3  3  3  3  3  3
           xangst      2.4307225899E-02  2.7866564940E+00  3.0548077309E+00
                       1.4055295917E+00  1.3279795185E+00  3.0548077309E+00
                       1.4541440435E+00  1.5893744325E+00  1.0182692436E+00
                       2.8353664093E+00  1.3069745700E-01  1.0182692436E+00
                       0.0000000000E+00  1.4586769755E+00  0.0000000000E+00
                       0.0000000000E+00  1.4586769755E+00  2.0365384873E+00
                       1.4298368176E+00  0.0000000000E+00  0.0000000000E+00
                       1.4298368176E+00  0.0000000000E+00  2.0365384873E+00
                       2.2334051091E-01  1.3985794841E+00  1.0182692436E+00
                       5.9338227931E-01  6.0710135719E-01  2.2023127201E+00
                       5.9338227931E-01  6.0710135719E-01  3.9073027417E+00
                       8.3645453830E-01  2.0657783327E+00  3.9073027417E+00
                       8.3645453830E-01  2.0657783327E+00  2.2023127201E+00
                       1.2064963067E+00  2.8572564596E+00  1.0182692436E+00
                       1.6531773285E+00  6.0097491390E-02  3.0548077309E+00
                       2.0232190969E+00  8.5157561828E-01  1.8707642544E+00
                       2.0232190969E+00  8.5157561828E-01  1.6577423286E-01
                       2.2662913559E+00  2.3102525938E+00  1.6577423286E-01
                       2.2662913559E+00  2.3102525938E+00  1.8707642544E+00
                       2.6363331243E+00  1.5187744669E+00  3.0548077309E+00
            xcart      4.5934000000E-02  5.2660176000E+00  5.7727500000E+00
                       2.6560660000E+00  2.5095176000E+00  5.7727500000E+00
                       2.7479340000E+00  3.0034824000E+00  1.9242500000E+00
                       5.3580660000E+00  2.4698240000E-01  1.9242500000E+00
                       0.0000000000E+00  2.7565000000E+00  0.0000000000E+00
                       0.0000000000E+00  2.7565000000E+00  3.8485000000E+00
                       2.7020000000E+00  0.0000000000E+00  0.0000000000E+00
                       2.7020000000E+00  0.0000000000E+00  3.8485000000E+00
                       4.2205240000E-01  2.6429322000E+00  1.9242500000E+00
                       1.1213300000E+00  1.1472553000E+00  4.1617679000E+00
                       1.1213300000E+00  1.1472553000E+00  7.3837321000E+00
                       1.5806700000E+00  3.9037553000E+00  7.3837321000E+00
                       1.5806700000E+00  3.9037553000E+00  4.1617679000E+00
                       2.2799476000E+00  5.3994322000E+00  1.9242500000E+00
                       3.1240524000E+00  1.1356780000E-01  5.7727500000E+00
                       3.8233300000E+00  1.6092447000E+00  3.5352321000E+00
                       3.8233300000E+00  1.6092447000E+00  3.1326790000E-01
                       4.2826700000E+00  4.3657447000E+00  3.1326790000E-01
                       4.2826700000E+00  4.3657447000E+00  3.5352321000E+00
                       4.9819476000E+00  2.8700678000E+00  5.7727500000E+00
             xred      8.5000000000E-03  9.5520000000E-01  7.5000000000E-01
                       4.9150000000E-01  4.5520000000E-01  7.5000000000E-01
                       5.0850000000E-01  5.4480000000E-01  2.5000000000E-01
                       9.9150000000E-01  4.4800000000E-02  2.5000000000E-01
                       0.0000000000E+00  5.0000000000E-01  0.0000000000E+00
                       0.0000000000E+00  5.0000000000E-01  5.0000000000E-01
                       5.0000000000E-01  0.0000000000E+00  0.0000000000E+00
                       5.0000000000E-01  0.0000000000E+00  5.0000000000E-01
                       7.8100000000E-02  4.7940000000E-01  2.5000000000E-01
                       2.0750000000E-01  2.0810000000E-01  5.4070000000E-01
                       2.0750000000E-01  2.0810000000E-01  9.5930000000E-01
                       2.9250000000E-01  7.0810000000E-01  9.5930000000E-01
                       2.9250000000E-01  7.0810000000E-01  5.4070000000E-01
                       4.2190000000E-01  9.7940000000E-01  2.5000000000E-01
                       5.7810000000E-01  2.0600000000E-02  7.5000000000E-01
                       7.0750000000E-01  2.9190000000E-01  4.5930000000E-01
                       7.0750000000E-01  2.9190000000E-01  4.0700000000E-02
                       7.9250000000E-01  7.9190000000E-01  4.0700000000E-02
                       7.9250000000E-01  7.9190000000E-01  4.5930000000E-01
                       9.2190000000E-01  5.2060000000E-01  7.5000000000E-01
            znucl       20.00000   22.00000    8.00000

 chkinp: Checking input parameters for consistency.

== DATASET  1 ==================================================================
-   nproc =    3   -> not optimal: autoparal keyword recommended in input file

 Real(R)+Recip(G) space primitive vectors, cartesian coordinates (Bohr,Bohr^-1):
 R(1)=  5.4040000  0.0000000  0.0000000  G(1)=  0.1850481  0.0000000  0.0000000
 R(2)=  0.0000000  5.5130000  0.0000000  G(2)=  0.0000000  0.1813894  0.0000000
 R(3)=  0.0000000  0.0000000  7.6970000  G(3)=  0.0000000  0.0000000  0.1299207
 Unit cell volume ucvol=  2.2931096E+02 bohr^3
 Angles (23,13,12)=  9.00000000E+01  9.00000000E+01  9.00000000E+01 degrees

 getcut: wavevector=  0.0000  0.0000  0.0000  ngfft=  32  32  45
         ecut(hartree)=     40.000   => boxcut(ratio)=   2.00787

--- Pseudopotential description ------------------------------------------------
- pspini: atom type   1  psp file is /CECI/home/ucl/naps/jovbever/.PsP/CTO/Ca.psp8
- pspatm: opening atomic psp file    /CECI/home/ucl/naps/jovbever/.PsP/CTO/Ca.psp8
- Ca    ONCVPSP-3.2.3.1  r_core=   1.45885   1.45885   1.85192
- 20.00000  10.00000    170504                znucl, zion, pspdat
    8   11    2    4       400   0.00000      pspcod,pspxc,lmax,lloc,mmax,r2well
    3.99000000000000    6.00000000000000    0.00000000000000   rchrg,fchrg,qchrg
     nproj     2     2     2
     extension_switch     1
  pspatm : epsatm=   12.33414111
         --- l  ekb(1:nproj) -->
             0   10.063789    0.972391
             1    3.049878    0.471799
             2   -3.406671   -1.078890
 pspatm: atomic psp has been read  and splines computed

- pspini: atom type   2  psp file is /CECI/home/ucl/naps/jovbever/.PsP/CTO/Ti.psp8
- pspatm: opening atomic psp file    /CECI/home/ucl/naps/jovbever/.PsP/CTO/Ti.psp8
- Ti    ONCVPSP-3.2.3.1  r_core=   1.35825   1.31050   1.66360
- 22.00000  12.00000    170504                znucl, zion, pspdat
    8   11    2    4       600   0.00000      pspcod,pspxc,lmax,lloc,mmax,r2well
    5.99000000000000    2.50000000000000    0.00000000000000   rchrg,fchrg,qchrg
     nproj     2     2     2
     extension_switch     1
  pspatm : epsatm=   14.68144390
         --- l  ekb(1:nproj) -->
             0   11.362348    1.263639
             1    1.975402   -0.084666
             2   -5.186090   -1.477451
 pspatm: atomic psp has been read  and splines computed

- pspini: atom type   3  psp file is /CECI/home/ucl/naps/jovbever/.PsP/CTO/O.psp8
[...]
   11       0.913109924624      0.205157649512      0.300372134924
   12      -0.913109924624      0.205157649512      0.300372134924
   13      -0.913109924624      0.205157649512     -0.300372134924
   14       1.010494321037     -1.173862721505      0.000000000000
   15      -1.010494321037      1.173862721505     -0.000000000000
   16       0.913109924624     -0.205157649512      0.300372134924
   17       0.913109924624     -0.205157649512     -0.300372134924
   18      -0.913109924624     -0.205157649512     -0.300372134924
   19      -0.913109924624     -0.205157649512      0.300372134924
   20       1.010494321037      1.173862721505      0.000000000000

 cartesian coordinates (angstrom) at end:
    1      0.02430722589937     2.78665649395381     3.05480773088792
    2      1.40552959171081     1.32797951847548     3.05480773088792
    3      1.45414404350955     1.58937443248119     1.01826924362931
    4      2.83536640932099     0.13069745700286     1.01826924362931
    5      0.00000000000000     1.45867697547834     0.00000000000000
    6      0.00000000000000     1.45867697547834     2.03653848725861
    7      1.42983681761018     0.00000000000000     0.00000000000000
    8      1.42983681761018     0.00000000000000     2.03653848725861
    9      0.22334051091071     1.39857948408863     1.01826924362931
   10      0.59338227930822     0.60710135719408     2.20231272012147
   11      0.59338227930822     0.60710135719408     3.90730274165438
   12      0.83645453830196     2.06577833267242     3.90730274165438
   13      0.83645453830196     2.06577833267242     2.20231272012147
   14      1.20649630669947     2.85725645956696     1.01826924362931
   15      1.65317732852089     0.06009749138971     3.05480773088792
   16      2.02321909691840     0.85157561828425     1.87076425439576
   17      2.02321909691840     0.85157561828425     0.16577423286285
   18      2.26629135591213     2.31025259376259     0.16577423286285
   19      2.26629135591213     2.31025259376259     1.87076425439576
   20      2.63633312430965     1.51877446686804     3.05480773088792

 cartesian forces (hartree/bohr) at end:
    1     -0.07758910359261     0.59392469122469     0.00000000000000
    2      0.07758910359261     0.59392469122469     0.00000000000000
    3     -0.07758910359261    -0.59392469122469     0.00000000000000
    4      0.07758910359261    -0.59392469122469     0.00000000000000
    5     -0.00000000000000     0.00000000000000     0.00000000000000
    6     -0.00000000000000     0.00000000000000     0.00000000000000
    7     -0.00000000000000     0.00000000000000     0.00000000000000
    8     -0.00000000000000     0.00000000000000     0.00000000000000
    9      0.18699006680920     0.21292630536995     0.00000000000000
   10     -0.16896926806521    -0.03721343179975     0.03902457255081
   11     -0.16896926806521    -0.03721343179975    -0.03902457255081
   12      0.16896926806521    -0.03721343179975    -0.03902457255081
   13      0.16896926806521    -0.03721343179975     0.03902457255081
   14     -0.18699006680920     0.21292630536995     0.00000000000000
   15      0.18699006680920    -0.21292630536995     0.00000000000000
   16     -0.16896926806521     0.03721343179975    -0.03902457255081
   17     -0.16896926806521     0.03721343179975     0.03902457255081
   18      0.16896926806521     0.03721343179975     0.03902457255081
   19      0.16896926806521     0.03721343179975    -0.03902457255081
   20     -0.18699006680920    -0.21292630536995     0.00000000000000
 frms,max,avg= 1.8293646E-01 5.9392469E-01   0.000E+00  0.000E+00  0.000E+00 h/b

 cartesian forces (eV/Angstrom) at end:
    1     -3.98979178796726    30.54083300357866     0.00000000000000
    2      3.98979178796726    30.54083300357866     0.00000000000000
    3     -3.98979178796726   -30.54083300357866     0.00000000000000
    4      3.98979178796726   -30.54083300357866     0.00000000000000
    5     -0.00000000000000     0.00000000000000     0.00000000000000
    6     -0.00000000000000     0.00000000000000     0.00000000000000
    7     -0.00000000000000     0.00000000000000     0.00000000000000
    8     -0.00000000000000     0.00000000000000     0.00000000000000
    9      9.61541503178087    10.94910993002043     0.00000000000000
   10     -8.68874837999324    -1.91359144160640     2.00672403575720
   11     -8.68874837999324    -1.91359144160640    -2.00672403575720
   12      8.68874837999324    -1.91359144160640    -2.00672403575720
   13      8.68874837999324    -1.91359144160640     2.00672403575720
   14     -9.61541503178087    10.94910993002043     0.00000000000000
   15      9.61541503178087   -10.94910993002043     0.00000000000000
   16     -8.68874837999324     1.91359144160640    -2.00672403575720
   17     -8.68874837999324     1.91359144160640     2.00672403575720
   18      8.68874837999324     1.91359144160640     2.00672403575720
   19      8.68874837999324     1.91359144160640    -2.00672403575720
   20     -9.61541503178087   -10.94910993002043     0.00000000000000
 frms,max,avg= 9.4069704E+00 3.0540833E+01   0.000E+00  0.000E+00  0.000E+00 e/A
 length scales=  5.404000000000  5.513000000000  7.697000000000 bohr
              =  2.859673635220  2.917353950957  4.073076974517 angstroms
 prteigrs : about to open file spo_EIG
 Fermi (or HOMO) energy (hartree) =   2.38498   Average Vxc (hartree)=  -0.94574
 Eigenvalues (hartree) for nkpt=   1  k points:
 kpt#   1, nband= 80, wtk=  1.00000, kpt=  0.2500  0.2500  0.2500 (reduced coord)
  -0.81531   -0.75216   -0.73037   -0.68497   -0.28991   -0.27407   -0.18195   -0.17902
  -0.12610   -0.09974   -0.05934   -0.02319   -0.00004    0.05287    0.06077    0.10598
   0.20214    0.32315    0.33754    0.46068    0.48193    0.51687    0.58567    0.63598
   0.67169    0.68075    0.70843    0.75732    0.78189    0.80336    0.82236    0.84471
   0.84569    0.88700    0.92754    0.95858    0.98352    1.01399    1.04246    1.05646
   1.13355    1.16047    1.19638    1.22931    1.25252    1.30676    1.34547    1.38090
   1.41108    1.44926    1.47914    1.53554    1.59542    1.61312    1.67267    1.69672
   1.71922    1.78483    1.79269    1.80842    1.81733    1.88210    1.89856    1.91934
   1.93206    1.98898    2.00911    2.07702    2.10559    2.15012    2.17335    2.19991
   2.21131    2.23922    2.24938    2.25598    2.27436    2.30625    2.35069    2.38498

 Components of total free energy (in Hartree) :

    Kinetic energy  =  4.62082392213431E+02
    Hartree energy  =  3.43802879654732E+01
    XC energy       = -1.45354259865005E+02
    Ewald energy    = -8.20595119615796E+02
    PspCore energy  =  1.27273713193440E+02
    Loc. psp. energy= -1.39977682462970E+02
    NL   psp  energy= -5.54822949586537E+01
    >>>>>>>>> Etotal= -5.37672963530081E+02

 Other information on the energy :
    Total energy(eV)= -1.46308254017608E+04 ; Band energy (Ha)=   1.7064445885E+02

 Cartesian components of stress tensor (hartree/bohr^3)
  sigma(1 1)= -3.37792733E-01  sigma(3 2)=  0.00000000E+00
  sigma(2 2)= -3.30447802E-01  sigma(3 1)=  0.00000000E+00
  sigma(3 3)= -3.45033194E-01  sigma(2 1)=  0.00000000E+00

-Cartesian components of stress tensor (GPa)         [Pressure=  9.9372E+03 GPa]
- sigma(1 1)= -9.93820364E+03  sigma(3 2)=  0.00000000E+00
- sigma(2 2)= -9.72210834E+03  sigma(3 1)=  0.00000000E+00
- sigma(3 3)= -1.01512253E+04  sigma(2 1)=  0.00000000E+00

== END DATASET(S) ==============================================================

 -outvars: echo values of variables after computation  --------
            acell      5.4040000000E+00  5.5130000000E+00  7.6970000000E+00 Bohr
              amu      4.00780000E+01  4.78800000E+01  1.59994000E+01
             ecut      4.00000000E+01 Hartree
           etotal     -5.3767296353E+02
            fcart     -7.7589103593E-02  5.9392469122E-01  3.4694755384E-19
                       7.7589103593E-02  5.9392469122E-01  3.4694723144E-19
                      -7.7589103593E-02 -5.9392469122E-01  3.4694766131E-19
                       7.7589103593E-02 -5.9392469122E-01  3.4694733891E-19
                      -1.3877787808E-18  2.7755575616E-18  3.4694744637E-19
                      -1.3877787808E-18  2.7755575616E-18  3.4694744637E-19
                      -1.3877787808E-18  2.7755575616E-18  3.4694744637E-19
                      -1.3877787808E-18  2.7755575616E-18  3.4694744637E-19
                       1.8699006681E-01  2.1292630537E-01  3.4700246995E-19
                      -1.6896926807E-01 -3.7213431800E-02  3.9024572551E-02
                      -1.6896926807E-01 -3.7213431800E-02 -3.9024572551E-02
                       1.6896926807E-01 -3.7213431800E-02 -3.9024572551E-02
                       1.6896926807E-01 -3.7213431800E-02  3.9024572551E-02
                      -1.8699006681E-01  2.1292630537E-01  3.4691993459E-19
                       1.8699006681E-01 -2.1292630537E-01  3.4697495816E-19
                      -1.6896926807E-01  3.7213431800E-02 -3.9024572551E-02
                      -1.6896926807E-01  3.7213431800E-02  3.9024572551E-02
                       1.6896926807E-01  3.7213431800E-02  3.9024572551E-02
                       1.6896926807E-01  3.7213431800E-02 -3.9024572551E-02
                      -1.8699006681E-01 -2.1292630537E-01  3.4689242280E-19
-          fftalg         312
              kpt      2.50000000E-01  2.50000000E-01  2.50000000E-01
         kptrlatt        2    0    0      0    2    0      0    0    2
          kptrlen      1.08080000E+01
P           mkmem           1
            natom          20
            nband          80
            ngfft          32      32      45
             nkpt           1
             nsym           8
           ntypat           3
              occ      2.000000  2.000000  2.000000  2.000000  2.000000  2.000000
                       2.000000  2.000000  2.000000  2.000000  2.000000  2.000000
                       2.000000  2.000000  2.000000  2.000000  2.000000  2.000000
                       2.000000  2.000000  2.000000  2.000000  2.000000  2.000000
                       2.000000  2.000000  2.000000  2.000000  2.000000  2.000000
                       2.000000  2.000000  2.000000  2.000000  2.000000  2.000000
                       2.000000  2.000000  2.000000  2.000000  2.000000  2.000000
                       2.000000  2.000000  2.000000  2.000000  2.000000  2.000000
                       2.000000  2.000000  2.000000  2.000000  2.000000  2.000000
                       2.000000  2.000000  2.000000  2.000000  2.000000  2.000000
                       2.000000  2.000000  2.000000  2.000000  2.000000  2.000000
                       2.000000  2.000000  2.000000  2.000000  2.000000  2.000000
                       2.000000  2.000000  2.000000  2.000000  2.000000  2.000000
                       2.000000  2.000000
           shiftk      5.00000000E-01  5.00000000E-01  5.00000000E-01
          spgroup          62
           strten     -3.3779273286E-01 -3.3044780159E-01 -3.4503319358E-01
                       0.0000000000E+00  0.0000000000E+00  0.0000000000E+00
           symrel      1  0  0   0  1  0   0  0  1      -1  0  0   0 -1  0   0  0 -1
                      -1  0  0   0  1  0   0  0 -1       1  0  0   0 -1  0   0  0  1
                      -1  0  0   0 -1  0   0  0  1       1  0  0   0  1  0   0  0 -1
                       1  0  0   0 -1  0   0  0 -1      -1  0  0   0  1  0   0  0  1
            tnons      0.0000000  0.0000000  0.0000000     0.0000000  0.0000000  0.0000000
                       0.5000000  0.5000000  0.5000000     0.5000000  0.5000000  0.5000000
                       0.0000000  0.0000000  0.5000000     0.0000000  0.0000000  0.5000000
                       0.5000000  0.5000000  0.0000000     0.5000000  0.5000000  0.0000000
           toldfe      1.00000000E-10 Hartree
            typat      1  1  1  1  2  2  2  2  3  3  3  3  3  3  3  3  3  3  3  3
           xangst      2.4307225899E-02  2.7866564940E+00  3.0548077309E+00
                       1.4055295917E+00  1.3279795185E+00  3.0548077309E+00
                       1.4541440435E+00  1.5893744325E+00  1.0182692436E+00
                       2.8353664093E+00  1.3069745700E-01  1.0182692436E+00
                       0.0000000000E+00  1.4586769755E+00  0.0000000000E+00
                       0.0000000000E+00  1.4586769755E+00  2.0365384873E+00
                       1.4298368176E+00  0.0000000000E+00  0.0000000000E+00
                       1.4298368176E+00  0.0000000000E+00  2.0365384873E+00
                       2.2334051091E-01  1.3985794841E+00  1.0182692436E+00
                       5.9338227931E-01  6.0710135719E-01  2.2023127201E+00
                       5.9338227931E-01  6.0710135719E-01  3.9073027417E+00
                       8.3645453830E-01  2.0657783327E+00  3.9073027417E+00
                       8.3645453830E-01  2.0657783327E+00  2.2023127201E+00
                       1.2064963067E+00  2.8572564596E+00  1.0182692436E+00
                       1.6531773285E+00  6.0097491390E-02  3.0548077309E+00
                       2.0232190969E+00  8.5157561828E-01  1.8707642544E+00
                       2.0232190969E+00  8.5157561828E-01  1.6577423286E-01
                       2.2662913559E+00  2.3102525938E+00  1.6577423286E-01
                       2.2662913559E+00  2.3102525938E+00  1.8707642544E+00
                       2.6363331243E+00  1.5187744669E+00  3.0548077309E+00
            xcart      4.5934000000E-02  5.2660176000E+00  5.7727500000E+00
                       2.6560660000E+00  2.5095176000E+00  5.7727500000E+00
                       2.7479340000E+00  3.0034824000E+00  1.9242500000E+00
                       5.3580660000E+00  2.4698240000E-01  1.9242500000E+00
                       0.0000000000E+00  2.7565000000E+00  0.0000000000E+00
                       0.0000000000E+00  2.7565000000E+00  3.8485000000E+00
                       2.7020000000E+00  0.0000000000E+00  0.0000000000E+00
                       2.7020000000E+00  0.0000000000E+00  3.8485000000E+00
                       4.2205240000E-01  2.6429322000E+00  1.9242500000E+00
                       1.1213300000E+00  1.1472553000E+00  4.1617679000E+00
                       1.1213300000E+00  1.1472553000E+00  7.3837321000E+00
                       1.5806700000E+00  3.9037553000E+00  7.3837321000E+00
                       1.5806700000E+00  3.9037553000E+00  4.1617679000E+00
                       2.2799476000E+00  5.3994322000E+00  1.9242500000E+00
                       3.1240524000E+00  1.1356780000E-01  5.7727500000E+00
                       3.8233300000E+00  1.6092447000E+00  3.5352321000E+00
                       3.8233300000E+00  1.6092447000E+00  3.1326790000E-01
                       4.2826700000E+00  4.3657447000E+00  3.1326790000E-01
                       4.2826700000E+00  4.3657447000E+00  3.5352321000E+00
                       4.9819476000E+00  2.8700678000E+00  5.7727500000E+00
             xred      8.5000000000E-03  9.5520000000E-01  7.5000000000E-01
                       4.9150000000E-01  4.5520000000E-01  7.5000000000E-01
                       5.0850000000E-01  5.4480000000E-01  2.5000000000E-01
                       9.9150000000E-01  4.4800000000E-02  2.5000000000E-01
                       0.0000000000E+00  5.0000000000E-01  0.0000000000E+00
                       0.0000000000E+00  5.0000000000E-01  5.0000000000E-01
                       5.0000000000E-01  0.0000000000E+00  0.0000000000E+00
                       5.0000000000E-01  0.0000000000E+00  5.0000000000E-01
                       7.8100000000E-02  4.7940000000E-01  2.5000000000E-01
                       2.0750000000E-01  2.0810000000E-01  5.4070000000E-01
                       2.0750000000E-01  2.0810000000E-01  9.5930000000E-01
                       2.9250000000E-01  7.0810000000E-01  9.5930000000E-01
                       2.9250000000E-01  7.0810000000E-01  5.4070000000E-01
                       4.2190000000E-01  9.7940000000E-01  2.5000000000E-01
                       5.7810000000E-01  2.0600000000E-02  7.5000000000E-01
                       7.0750000000E-01  2.9190000000E-01  4.5930000000E-01
                       7.0750000000E-01  2.9190000000E-01  4.0700000000E-02
                       7.9250000000E-01  7.9190000000E-01  4.0700000000E-02
                       7.9250000000E-01  7.9190000000E-01  4.5930000000E-01
                       9.2190000000E-01  5.2060000000E-01  7.5000000000E-01
            znucl       20.00000   22.00000    8.00000

- Timing analysis has been suppressed with timopt=0

 Suggested references for the acknowledgment of ABINIT usage.

 Calculation completed.
.Delivered   1 WARNINGs and   0 COMMENTs to log file.