.Version 8.11.13 of ABINIT

 ABINIT is a project of the Universite Catholique de Louvain,
 Corning Inc. and other collaborators, see ~abinit/doc/developers/contributors.txt .
 acknowledgments of the ABINIT effort.

.Starting date : Fri 10 Jan 2020.
- ( at 12h16 )

 === Build Information ===
  Version       : 8.11.13
  Build target  : x86_64_linux_intel14.0
  Build date    : 20191206

 === Optimizations ===
  Debug level        : basic
  Optimization level : standard
  Architecture       : intel_xeon

 === Multicore ===
  Parallel build : yes
  Parallel I/O   : yes
  openMP support : no
  GPU support    : no

 === Connectors / Fallbacks ===
  Connectors on : yes
  Fallbacks on  : yes
  FFT flavor    : fftw3
  LINALG flavor : mkl
  TIMER flavor  : abinit
  TRIO flavor   : netcdf

 === Experimental features ===
  Exports             : no
  GW double-precision : yes

 Default optimizations:
   -O3

 Optimizations for 43_ptgroups:
   -O0

 CPP options activated during the build:

                  CC_INTEL                   CXX_GNU                  FC_INTEL

 HAVE_FC_ALLOCATABLE_DT...             HAVE_FC_ASYNC  HAVE_FC_COMMAND_ARGUMENT

        HAVE_FC_CONTIGUOUS           HAVE_FC_CPUTIME             HAVE_FC_ETIME

              HAVE_FC_EXIT             HAVE_FC_FLUSH             HAVE_FC_GAMMA

            HAVE_FC_GETENV            HAVE_FC_GETPID   HAVE_FC_IEEE_ARITHMETIC

   HAVE_FC_IEEE_EXCEPTIONS             HAVE_FC_IOMSG     HAVE_FC_ISO_C_BINDING

  HAVE_FC_ISO_FORTRAN_2008        HAVE_FC_LONG_LINES        HAVE_FC_MOVE_ALLOC

  HAVE_FC_ON_THE_FLY_SHAPE           HAVE_FC_PRIVATE         HAVE_FC_PROTECTED

           HAVE_FC_SHIFTLR         HAVE_FC_STREAM_IO            HAVE_FC_SYSTEM

                  HAVE_FFT            HAVE_FFT_FFTW3              HAVE_FFT_MPI

           HAVE_FFT_SERIAL               HAVE_GW_DPC        HAVE_LIBPAW_ABINIT

         HAVE_LINALG_AXPBY        HAVE_LINALG_GEMM3M  HAVE_LINALG_MKL_IMATCOPY

   HAVE_LINALG_MKL_OMATADD  HAVE_LINALG_MKL_OMATCOPY   HAVE_LINALG_MKL_THREADS

        HAVE_LINALG_SERIAL                  HAVE_MPI                 HAVE_MPI2

       HAVE_MPI_IALLREDUCE        HAVE_MPI_IALLTOALL       HAVE_MPI_IALLTOALLV

           HAVE_MPI_IBCAST         HAVE_MPI_IGATHERV        HAVE_MPI_INTEGER16

               HAVE_MPI_IO HAVE_MPI_TYPE_CREATE_S...               HAVE_NETCDF

           HAVE_NETCDF_MPI                HAVE_NUMPY             HAVE_OS_LINUX

         HAVE_TIMER_ABINIT                  HAVE_XML              USE_MACROAVE

- input  file    -> opt.in
- output file    -> opt.out
- root for input  files -> opti
- root for output files -> opto

-instrng: 56 lines of input have been read from file opt.in

 Please give name of formatted atomic psp file
 For atom type 1, psp file is /CECI/home/ucl/naps/jovbever/.PsP/Si/Si.psp8
  read the values zionpsp=  4.0 , pspcod=   8 , lmax=   2

 inpspheads: deduce mpsang = 3, n1xccc = 2501.

invars1m : enter jdtset= 0

 symlatt: the Bravais lattice is cF (face-centered cubic)
  xred   is defined in input file
 ingeo: takes atomic coordinates from input array xred

 symlatt: the Bravais lattice is cF (face-centered cubic)

 symlatt: the Bravais lattice is cF (face-centered cubic)

--- !COMMENT
src_file: m_symfind.F90
src_line: 931
message: |
    The Bravais lattice determined only from the primitive
    vectors, bravais(1)=  7, is more symmetric
    than the real one, iholohedry=  3, obtained by taking into
    account the atomic positions. Start deforming the primitive vector set.
...

 symlatt: the Bravais lattice is oI (body-centered orthorhombic)
 symspgr: spgroup=  74  Im m a   (=D2h^28)
 For input ecut=  1.323000E+01 best grid ngfft=      30      30      30
       max ecut=  1.731195E+01

 ==== FFT mesh ====
  FFT mesh divisions ........................    30   30   30
  Augmented FFT divisions ...................    31   31   30
  FFT algorithm .............................   312
  FFT cache size ............................    16
 getmpw: optimal value of mpw= 839

 Symmetries : space group Im m a (# 74); Bravais oI (body-center ortho.)

 getdim_nloc : deduce lmnmax  =  18, lnmax  =   6,
                      lmnmaxso=  18, lnmaxso=   6.
     intxc =       0    ionmov =       2      iscf =       7    lmnmax =       6
     lnmax =       6     mgfft =      30  mpssoang =       3    mqgrid =    3001
     natom =       2  nloc_mem =       1    nspden =       1   nspinor =       1
    nsppol =       1      nsym =       8    n1xccc =    2501    ntypat =       1
    occopt =       1   xclevel =       2
-    mband =           6        mffmem =           1         mkmem =           1
       mpw =         839          nfft =       27000          nkpt =           6
  Rough estimation (10% accuracy) of disk space for files :

 The job will continue.
------------- Echo of variables that govern the present computation ------------
-
- outvars: echo of selected default values
-   iomode0 =  0 , fftalg0 =312 , wfoptalg0 =  0
-
- outvars: echo of global parameters not present in the input file
-  max_nthreads =    0
-
 -outvars: echo values of preprocessed input variables --------

 These variables are accessible in NetCDF format (opto_OUT.nc)

            acell      1.1338356797E+01  1.1338356797E+01  1.1338356797E+01 Bohr
              amu      2.80855000E+01
          dilatmx      1.05000000E+00
             ecut      1.20000000E+01 Hartree
           ecutsm      5.00000000E-01 Hartree
-          fftalg         312
           ionmov           2
              ixc          11
              kpt     -2.50000000E-01  5.00000000E-01  0.00000000E+00
                       5.00000000E-01 -2.50000000E-01  0.00000000E+00
                      -2.50000000E-01  0.00000000E+00  0.00000000E+00
                       0.00000000E+00 -2.50000000E-01  0.00000000E+00
                       2.50000000E-01 -2.50000000E-01  2.50000000E-01
                       5.00000000E-01  0.00000000E+00  2.50000000E-01
         kptrlatt        2   -2    2     -2    2    2     -2   -2    2
          kptrlen      2.26767136E+01
P           mkmem           1
            natom           2
            nband           6
            ngfft          30      30      30
             nkpt           6
             nsym           8
            ntime          15
           ntypat           1
              occ      2.000000  2.000000  2.000000  2.000000  0.000000  0.000000
          optcell           2
            rprim      5.0000000000E-01  5.0000000000E-01  0.0000000000E+00
                       0.0000000000E+00  5.0000000000E-01  5.0000000000E-01
                       5.0000000000E-01  0.0000000000E+00  5.0000000000E-01
           shiftk      5.00000000E-01  5.00000000E-01  5.00000000E-01
          spgroup          74
           symrel      1  0  0   0  1  0   0  0  1      -1  0  0   0 -1  0   0  0 -1
                       0 -1  1   0 -1  0   1 -1  0       0  1 -1   0  1  0  -1  1  0
                       0  0  1   0  1  0   1  0  0       0  0 -1   0 -1  0  -1  0  0
                       1 -1  0   0 -1  0   0 -1  1      -1  1  0   0  1  0   0  1 -1
            tnons      0.0000000  0.0000000  0.0000000     0.2400000  0.2600000  0.2400000
                       0.0000000  0.0000000  0.0000000     0.2400000  0.2600000  0.2400000
                       0.0000000  0.0000000  0.0000000     0.2400000  0.2600000  0.2400000
                       0.0000000  0.0000000  0.0000000     0.2400000  0.2600000  0.2400000
           tolmxf      1.00000000E-08
           tolvrs      1.00000000E-10
            typat      1  1
              wtk        0.25000    0.25000    0.12500    0.12500    0.12500    0.12500
           xangst      0.0000000000E+00  0.0000000000E+00  0.0000000000E+00
                       1.4400000000E+00  1.5000000000E+00  1.5000000000E+00
            xcart      0.0000000000E+00  0.0000000000E+00  0.0000000000E+00
                       2.7212056314E+00  2.8345891993E+00  2.8345891993E+00
             xred      0.0000000000E+00  0.0000000000E+00  0.0000000000E+00
                       2.4000000000E-01  2.6000000000E-01  2.4000000000E-01
            znucl       14.00000

 chkinp: Checking input parameters for consistency.

 chkinp: WARNING -
   Chksymbreak=1 . Found potentially symmetry-breaking value of tnons,
   which is neither a rational fraction in 1/8th nor in 1/12th :
   for the symmetry number    2
   symrel is  -1  0  0  0 -1  0  0  0 -1
   tnons is     2.400000E-01    2.600000E-01    2.400000E-01
   Please, read the description of the input variable chksymbreak,
   then, if you feel confident, you might switch it to zero, or consult with the forum.

[...]

 chkinp: WARNING -
   Chksymbreak=1 . Found potentially symmetry-breaking value of tnons,
   which is neither a rational fraction in 1/8th nor in 1/12th :
   for the symmetry number    8
   symrel is  -1  1  0  0  1  0  0  1 -1
   tnons is     2.400000E-01    2.600000E-01    2.400000E-01
   Please, read the description of the input variable chksymbreak,
   then, if you feel confident, you might switch it to zero, or consult with the forum.

 chkinp: WARNING -
   Chksymbreak=1 . Found potentially symmetry-breaking value of tnons,
   which is neither a rational fraction in 1/8th nor in 1/12th :
   for the symmetry number    8
   symrel is  -1  1  0  0  1  0  0  1 -1
   tnons is     2.400000E-01    2.600000E-01    2.400000E-01
   Please, read the description of the input variable chksymbreak,
   then, if you feel confident, you might switch it to zero, or consult with the forum.
 DATA TYPE INFORMATION:
 REAL:      Data type name: REAL(DP)
            Kind value:      8
            Precision:      15
            Smallest nonnegligible quantity relative to 1:  0.22204460E-15
            Smallest positive number:                       0.22250739-307
            Largest representable number:                   0.17976931+309
 INTEGER:   Data type name: INTEGER(default)
            Kind value: 4
            Bit size:   32
            Largest representable number: 2147483647
 LOGICAL:   Data type name: LOGICAL
            Kind value: 4
 CHARACTER: Data type name: CHARACTER             Kind value: 1

  ==== OpenMP parallelism is OFF ====

  xmpi_tag_ub ................   1073741824
  xmpi_bsize_ch ..............            1
  xmpi_bsize_int .............            4
  xmpi_bsize_sp ..............            4
  xmpi_bsize_dp ..............            8
  xmpi_bsize_spc .............            8
  xmpi_bsize_dpc .............           16
  xmpio_bsize_frm ............            4
  xmpi_address_kind ..........            8
  xmpi_offset_kind ...........            8
  MPI_WTICK ..................   1.000000000000000E-006

== DATASET  1 ==================================================================
-   nproc =    6

 getdim_nloc : deduce lmnmax  =  18, lnmax  =   6,
                      lmnmaxso=  18, lnmaxso=   6.
 Exchange-correlation functional for the present dataset will be:
  GGA: Perdew-Burke-Ernzerhof functional - ixc=11
 Citation for XC functional:
  J.P.Perdew, K.Burke, M.Ernzerhof, PRL 77, 3865 (1996)

 Unit cell volume ucvol=  3.6441007E+02 bohr^3
[...]
 scfcv_core: previous iteration took  0.25 [s]

[...]

 At SCF step    8       vres2   =  7.99E-12 < tolvrs=  1.00E-10 =>converged.

 Cartesian components of stress tensor (hartree/bohr^3)
  sigma(1 1)=  4.40772236E-04  sigma(3 2)= -1.86966953E-06
  sigma(2 2)=  4.39717961E-04  sigma(3 1)=  0.00000000E+00
  sigma(3 3)=  4.39717961E-04  sigma(2 1)=  0.00000000E+00

   fftdatar_write: About to write data to: opto_TIM1_DEN with iomode: IO_MODE_FORTRAN
 Write iteration in HIST netCDF file

---OUTPUT-----------------------------------------------------------------------

 Cartesian coordinates (xcart) [bohr]
  0.00000000000000E+00  0.00000000000000E+00  0.00000000000000E+00
  2.72120563135533E+00  2.83458919932846E+00  2.83458919932846E+00
 Reduced coordinates (xred)
  0.00000000000000E+00  0.00000000000000E+00  0.00000000000000E+00
  2.40000000000000E-01  2.60000000000000E-01  2.40000000000000E-01
 Cartesian forces (fcart) [Ha/bohr]; max,rms= 9.10342E-03 5.25586E-03 (free atoms)
 -9.10341898240951E-03 -8.67361737988404E-19  8.67361737988404E-19
  9.10341898240951E-03  8.67361737988404E-19 -8.67361737988404E-19
 Reduced forces (fred)
  5.16089062489995E-02  0.00000000000000E+00  5.16089062489994E-02
 -5.16089062489995E-02  0.00000000000000E+00 -5.16089062489994E-02
 Scale of Primitive Cell (acell) [bohr]
  1.13383567973139E+01  1.13383567973139E+01  1.13383567973139E+01
 Real space primitive translations (rprimd) [bohr]
  5.66917839865693E+00  5.66917839865693E+00  0.00000000000000E+00
  0.00000000000000E+00  5.66917839865693E+00  5.66917839865693E+00
  5.66917839865693E+00  0.00000000000000E+00  5.66917839865693E+00
 Unitary Cell Volume (ucvol) [Bohr^3]=  3.64410067486860E+02
 Angles (23,13,12)= [degrees]
  6.00000000000000E+01  6.00000000000000E+01  6.00000000000000E+01
 Lengths [Bohr]
  8.01742897889321E+00  8.01742897889321E+00  8.01742897889321E+00
 Stress tensor in cartesian coordinates (strten) [Ha/bohr^3]
  4.40772235979801E-04  0.00000000000000E+00  0.00000000000000E+00
  0.00000000000000E+00  4.39717960785659E-04 -1.86966952692537E-06
  0.00000000000000E+00 -1.86966952692537E-06  4.39717960785659E-04
 Total energy (etotal) [Ha]= -8.43087355617496E+00
 fconv : at Broyd/MD step   1, gradients have not converged yet.
  max grad (force/stress) = 4.4077E-02 > tolmxf= 1.0000E-08 ha/bohr (free atoms)

Inverse hessian has been initialized.
 EXIT:           1           1
 mover: previous time step took  1.99 [s]

[...]

 Cartesian coordinates (xcart) [bohr]
 -8.98304295221138E-03 -4.53056747662644E-19  0.00000000000000E+00
  2.69420571758674E+00  2.79751459055949E+00  2.79751459055949E+00
 Reduced coordinates (xred)
 -8.02886974289447E-04  8.02886974289447E-04 -8.02886974289447E-04
  2.40802886974289E-01  2.59197113025711E-01  2.40802886974289E-01
 Cartesian forces (fcart) [Ha/bohr]; max,rms= 8.15398E-03 4.70770E-03 (free atoms)
 -8.15397692637692E-03 -4.33680868994202E-19  4.33680868994202E-19
  8.15397692637692E-03  4.33680868994202E-19 -4.33680868994202E-19
 Reduced forces (fred)
  4.56150911065709E-02  0.00000000000000E+00  4.56150911065709E-02
 -4.56150911065709E-02  0.00000000000000E+00 -4.56150911065709E-02
 Scale of Primitive Cell (acell) [bohr]
  7.91153999118269E+00  7.91256614981170E+00  7.91153999118269E+00
 Real space primitive translations (rprimd) [bohr]
  5.59421390548860E+00  5.59439321171330E+00  6.35969405680321E-04
  0.00000000000000E+00  5.59502918111898E+00  5.59502918111898E+00
  5.59421390548860E+00  6.35969405680323E-04  5.59439321171330E+00
 Unitary Cell Volume (ucvol) [Bohr^3]=  3.50166854512092E+02
 Angles (23,13,12)= [degrees]
  5.99957093324295E+01  5.99935390259801E+01  5.99957093324295E+01
 Lengths [Bohr]
  7.91153999118269E+00  7.91256614981170E+00  7.91153999118269E+00
 Stress tensor in cartesian coordinates (strten) [Ha/bohr^3]
  4.13941772269501E-04  0.00000000000000E+00  0.00000000000000E+00
  0.00000000000000E+00  4.12951811959857E-04 -5.74083050046555E-06
  0.00000000000000E+00 -5.74083050046555E-06  4.12951811959857E-04
 Total energy (etotal) [Ha]= -8.43711939126392E+00

 Difference of energy with previous step (new-old):
           Absolute (Ha)=-6.24584E-03
           Relative     =-7.40555E-04
 fconv : at Broyd/MD step   2, gradients have not converged yet.
  max grad (force/stress) = 4.1394E-02 > tolmxf= 1.0000E-08 ha/bohr (free atoms)

 EXIT:           1           1
 mover: previous time step took  1.83 [s]

[...]

--- Iteration: ( 9/15) Internal Cycle: (1/1)

[...]

--- Iteration: (10/15) Internal Cycle: (1/1)

[...]

 Difference of energy with previous step (new-old):
           Absolute (Ha)=-1.69553E-10
           Relative     =-2.00504E-11
 fconv : at Broyd/MD step  14, gradients have not converged yet.
  max grad (force/stress) = 3.3560E-06 > tolmxf= 1.0000E-08 ha/bohr (free atoms)

 EXIT:           1           1
 mover: previous time step took  1.04 [s]

--- Iteration: (15/15) Internal Cycle: (1/1)

 Cartesian coordinates (xcart) [bohr]
 -5.17519757697517E-02  4.41343770927220E-17  3.46944695195361E-17
  2.53573370216118E+00  2.58748288038645E+00  2.58748288038645E+00
 Reduced coordinates (xred)
 -5.00022767992906E-03  5.00022767992907E-03 -5.00022767992907E-03
  2.45000227679929E-01  2.54999772320072E-01  2.45000227679929E-01
 Scale of Primitive Cell (acell) [bohr]
  7.31850126010138E+00  7.31850676370144E+00  7.31850126010138E+00
 Real space primitive translations (rprimd) [bohr]
  5.17496192998214E+00  5.17496180829630E+00  3.95247659798881E-06
  0.00000000000000E+00  5.17496576077290E+00  5.17496576077290E+00
  5.17496192998214E+00  3.95247659801353E-06  5.17496180829630E+00
 Unitary Cell Volume (ucvol) [Bohr^3]=  2.77173338526508E+02
 Angles (23,13,12)= [degrees]
  5.99999751236434E+01  5.99999486915838E+01  5.99999751236434E+01
 Lengths [Bohr]
  7.31850126010138E+00  7.31850676370144E+00  7.31850126010138E+00

---SELF-CONSISTENT-FIELD CONVERGENCE--------------------------------------------

 getcut: wavevector=  0.0000  0.0000  0.0000  ngfft=  30  30  30
         ecut(hartree)=     12.000   => boxcut(ratio)=   2.63163

 getcut : COMMENT -
  Note that boxcut > 2.2 ; recall that boxcut=Gcut(box)/Gcut(sphere) = 2
  is sufficient for exact treatment of convolution.
  Such a large boxcut is a waste : you could raise ecut
  e.g. ecut=   20.776450 Hartrees makes boxcut=2

[...]

 Simple mixing update:
  residual square of the potential:   6.021660114992004E-008
 scfcv_core: previous iteration took  0.32 [s]

[...]

 Pulay update with  1 previous iterations:
 mixing of old trial potential: alpha(m:m-4)=   1.03     -0.316E-01
 scfcv_core: previous iteration took  0.23 [s]

 ITER STEP NUMBER     3
 vtorho: nnsclo_now=1, note that nnsclo,dbl_nnsclo,istep=0 0 3
 Total charge density [el/Bohr^3]
      Maximum=    8.4480E-02  at reduced coord.    0.1000    0.7000    0.1000
      Minimum=    1.5154E-03  at reduced coord.    0.0000    0.0000    0.0000
   Integrated=    8.0000E+00
 ETOT  3  -8.4563506573313    -1.208E-13 4.939E-15 8.426E-11
 scprqt: <Vxc>= -3.3700684E-01 hartree

 At SCF step    3       vres2   =  8.43E-11 < tolvrs=  1.00E-10 =>converged.

[...]

   fftdatar_write: About to write data to: opto_TIM15_DEN with iomode: IO_MODE_FORTRAN
 Write iteration in HIST netCDF file

---OUTPUT-----------------------------------------------------------------------

 Cartesian coordinates (xcart) [bohr]
 -5.17519757697517E-02  4.41343770927220E-17  3.46944695195361E-17
  2.53573370216118E+00  2.58748288038645E+00  2.58748288038645E+00
 Reduced coordinates (xred)
 -5.00022767992906E-03  5.00022767992907E-03 -5.00022767992907E-03
  2.45000227679929E-01  2.54999772320072E-01  2.45000227679929E-01
 Cartesian forces (fcart) [Ha/bohr]; max,rms= 8.91513E-07 5.14715E-07 (free atoms)
  8.91513328836608E-07  0.00000000000000E+00  0.00000000000000E+00
 -8.91513328836608E-07  0.00000000000000E+00  0.00000000000000E+00
 Reduced forces (fred)
 -4.61354753680109E-06  0.00000000000000E+00 -4.61354753680109E-06
  4.61354753680109E-06  0.00000000000000E+00  4.61354753680109E-06
 Scale of Primitive Cell (acell) [bohr]
  7.31850126010138E+00  7.31850676370144E+00  7.31850126010138E+00
 Real space primitive translations (rprimd) [bohr]
  5.17496192998214E+00  5.17496180829630E+00  3.95247659798881E-06
  0.00000000000000E+00  5.17496576077290E+00  5.17496576077290E+00
  5.17496192998214E+00  3.95247659801353E-06  5.17496180829630E+00
 Unitary Cell Volume (ucvol) [Bohr^3]=  2.77173338526508E+02
 Angles (23,13,12)= [degrees]
  5.99999751236434E+01  5.99999486915838E+01  5.99999751236434E+01
 Lengths [Bohr]
  7.31850126010138E+00  7.31850676370144E+00  7.31850126010138E+00
 Stress tensor in cartesian coordinates (strten) [Ha/bohr^3]
  2.60191822774869E-09  0.00000000000000E+00  0.00000000000000E+00
  0.00000000000000E+00  2.46120398714189E-09  8.32795902334579E-09
  0.00000000000000E+00  8.32795902334579E-09  2.46120398735873E-09
 Total energy (etotal) [Ha]= -8.45635065733127E+00

 Difference of energy with previous step (new-old):
           Absolute (Ha)=-5.70832E-11
           Relative     =-6.75034E-12

 fconv : WARNING -
  ntime=   15 was not enough Broyd/MD steps to converge gradients:
  max grad (force/stress) = 8.9151E-07 > tolmxf= 1.0000E-08 ha/bohr (free atoms)

--- !RelaxConvergenceWarning
message: |

     fconv : WARNING -
      ntime=   15 was not enough Broyd/MD steps to converge gradients:
      max grad (force/stress) = 8.9151E-07 > tolmxf= 1.0000E-08 ha/bohr (free atoms)

...

 ----iterations are completed or convergence reached----

 === Gap info ===
  >>>> For spin  1
   Minimum direct gap =   2.6761 [eV], located at k-point      :  -0.2500  0.0000  0.0000
   Fundamental gap    =   2.2831 [eV], Top of valence bands at :   0.0000 -0.2500  0.0000
                                       Bottom of conduction at :   0.5000 -0.2500  0.0000
 Mean square residual over all n,k,spin=   19.896E-16; max=  49.387E-16
  -0.2500  0.5000  0.0000    1  3.32556E-15 kpt; spin; max resid(k); each band:
  2.26E-15 9.67E-16 1.94E-15 3.00E-15 1.12E-15 3.33E-15
   0.5000 -0.2500  0.0000    1  2.91288E-15 kpt; spin; max resid(k); each band:
  2.27E-15 1.14E-15 2.75E-15 2.91E-15 1.24E-15 2.78E-15
  -0.2500  0.0000  0.0000    1  4.93873E-15 kpt; spin; max resid(k); each band:
  2.79E-15 1.86E-15 2.25E-15 8.37E-17 1.39E-15 4.94E-15
   0.0000 -0.2500  0.0000    1  4.93188E-15 kpt; spin; max resid(k); each band:
  2.52E-15 1.06E-15 4.51E-17 2.05E-15 4.93E-15 1.31E-16
   0.2500 -0.2500  0.2500    1  2.53714E-15 kpt; spin; max resid(k); each band:
  2.54E-15 2.20E-15 1.15E-15 2.18E-17 2.35E-15 1.87E-15
   0.5000  0.0000  0.2500    1  3.48887E-15 kpt; spin; max resid(k); each band:
  2.75E-15 1.96E-15 2.55E-15 3.21E-17 9.50E-16 3.49E-15

   outwf: writing wavefunctions to: opto_WFK with iomode: IO_MODE_FORTRAN_MASTER
 prteigrs : about to open file opto_EIG
 Fermi (or HOMO) energy (hartree) =   0.12571   Average Vxc (hartree)=  -0.33701
 Eigenvalues (hartree) for nkpt=   6  k points:
 kpt#   1, nband=  6, wtk=  0.25000, kpt= -0.2500  0.5000  0.0000 (reduced coord)
  -0.18292   -0.07927    0.02594    0.07370    0.20962    0.31587
 kpt#   2, nband=  6, wtk=  0.25000, kpt=  0.5000 -0.2500  0.0000 (reduced coord)
  -0.18291   -0.07927    0.02594    0.07370    0.20962    0.31587
 kpt#   3, nband=  6, wtk=  0.12500, kpt= -0.2500  0.0000  0.0000 (reduced coord)
  -0.25169    0.01020    0.12571    0.12571    0.22406    0.28080
 kpt#   4, nband=  6, wtk=  0.12500, kpt=  0.0000 -0.2500  0.0000 (reduced coord)
  -0.25169    0.01020    0.12571    0.12571    0.22406    0.28080
 kpt#   5, nband=  6, wtk=  0.12500, kpt=  0.2500 -0.2500  0.2500 (reduced coord)
  -0.18292   -0.07927    0.02594    0.07370    0.20962    0.31587
 kpt#   6, nband=  6, wtk=  0.12500, kpt=  0.5000  0.0000  0.2500 (reduced coord)
  -0.18291   -0.07927    0.02594    0.07370    0.20962    0.31587
 Total charge density [el/Bohr^3]
      Maximum=    8.4480E-02  at reduced coord.    0.1000    0.7000    0.1000
 Next maximum=    8.4480E-02  at reduced coord.    0.1000    0.1000    0.1000
      Minimum=    1.5154E-03  at reduced coord.    0.0000    0.0000    0.0000
 Next minimum=    2.0568E-03  at reduced coord.    0.2333    0.2667    0.2333
   Integrated=    8.0000E+00

 Cartesian components of stress tensor (hartree/bohr^3)
  sigma(1 1)=  2.60191823E-09  sigma(3 2)=  8.32795902E-09
  sigma(2 2)=  2.46120399E-09  sigma(3 1)=  0.00000000E+00
  sigma(3 3)=  2.46120399E-09  sigma(2 1)=  0.00000000E+00

-Cartesian components of stress tensor (GPa)         [Pressure= -7.3791E-05 GPa]
- sigma(1 1)=  7.65510643E-05  sigma(3 2)=  2.45016972E-04
- sigma(2 2)=  7.24111091E-05  sigma(3 1)=  0.00000000E+00
- sigma(3 3)=  7.24111091E-05  sigma(2 1)=  0.00000000E+00

== END DATASET(S) ==============================================================

 -outvars: echo values of variables after computation  --------

 These variables are accessible in NetCDF format (opto_OUT.nc)

            acell      7.3185012601E+00  7.3185067637E+00  7.3185012601E+00 Bohr
              amu      2.80855000E+01
          dilatmx      1.05000000E+00
             ecut      1.20000000E+01 Hartree
           ecutsm      5.00000000E-01 Hartree
           etotal     -8.4563506573E+00
            fcart      8.9151332884E-07  0.0000000000E+00  0.0000000000E+00
                      -8.9151332884E-07  0.0000000000E+00  0.0000000000E+00
-          fftalg         312
           ionmov           2
              ixc          11
              kpt     -2.50000000E-01  5.00000000E-01  0.00000000E+00
                       5.00000000E-01 -2.50000000E-01  0.00000000E+00
                      -2.50000000E-01  0.00000000E+00  0.00000000E+00
                       0.00000000E+00 -2.50000000E-01  0.00000000E+00
                       2.50000000E-01 -2.50000000E-01  2.50000000E-01
                       5.00000000E-01  0.00000000E+00  2.50000000E-01
         kptrlatt        2   -2    2     -2    2    2     -2   -2    2
          kptrlen      2.26767136E+01
P           mkmem           1
            natom           2
            nband           6
            ngfft          30      30      30
             nkpt           6
             nsym           8
            ntime          15
           ntypat           1
              occ      2.000000  2.000000  2.000000  2.000000  0.000000  0.000000
          optcell           2
            rprim      7.0710678950E-01  7.0710677287E-01  5.4006639577E-07
                       0.0000000000E+00  7.0710678119E-01  7.0710678119E-01
                       7.0710678950E-01  5.4006639577E-07  7.0710677287E-01
           shiftk      5.00000000E-01  5.00000000E-01  5.00000000E-01
          spgroup          74
           strten      2.6019182277E-09  2.4612039871E-09  2.4612039874E-09
                       8.3279590233E-09  0.0000000000E+00  0.0000000000E+00
           symrel      1  0  0   0  1  0   0  0  1      -1  0  0   0 -1  0   0  0 -1
                       0 -1  1   0 -1  0   1 -1  0       0  1 -1   0  1  0  -1  1  0
                       0  0  1   0  1  0   1  0  0       0  0 -1   0 -1  0  -1  0  0
                       1 -1  0   0 -1  0   0 -1  1      -1  1  0   0  1  0   0  1 -1
            tnons      0.0000000  0.0000000  0.0000000     0.2400000  0.2600000  0.2400000
                       0.0000000  0.0000000  0.0000000     0.2400000  0.2600000  0.2400000
                       0.0000000  0.0000000  0.0000000     0.2400000  0.2600000  0.2400000
                       0.0000000  0.0000000  0.0000000     0.2400000  0.2600000  0.2400000
           tolmxf      1.00000000E-08
           tolvrs      1.00000000E-10
            typat      1  1
              wtk        0.25000    0.25000    0.12500    0.12500    0.12500    0.12500
           xangst     -2.7385966077E-02  2.3354906473E-17  1.8359522534E-17
                       1.3418524822E+00  1.3692369679E+00  1.3692369679E+00
            xcart     -5.1751975770E-02  4.4134377093E-17  3.4694469520E-17
                       2.5357337022E+00  2.5874828804E+00  2.5874828804E+00
             xred     -5.0002276799E-03  5.0002276799E-03 -5.0002276799E-03
                       2.4500022768E-01  2.5499977232E-01  2.4500022768E-01
            znucl       14.00000

 Suggested references for the acknowledgment of ABINIT usage.

 Calculation completed.
.Delivered  13 WARNINGs and  16 COMMENTs to log file.

--- !FinalSummary
program: abinit
version: 8.11.13
start_datetime: Fri Jan 10 12:16:15 2020
end_datetime: Fri Jan 10 12:16:38 2020
overall_cpu_time:          90.2
overall_wall_time:         137.2
exit_requested_by_user: no
timelimit: 0
pseudos:
    Si  : 45c393525680abc7b25445b8ec62bf83
usepaw: 0
mpi_procs: 6
omp_threads: 1
num_warnings: 13
num_comments: 16
...