.Version 8.11.13 of ABINIT

 ABINIT is a project of the Universite Catholique de Louvain,
 Corning Inc. and other collaborators, see ~abinit/doc/developers/contributors.txt .
 acknowledgments of the ABINIT effort.

.Starting date : Thu 12 Dec 2019.
- ( at 17h35 )

 === Build Information ===
  Version       : 8.11.13
  Build target  : x86_64_linux_intel14.0
  Build date    : 20191206

 === Optimizations ===
  Debug level        : basic
  Optimization level : standard
  Architecture       : intel_xeon

 === Multicore ===
  Parallel build : yes
  Parallel I/O   : yes
  openMP support : no
  GPU support    : no

 === Connectors / Fallbacks ===
  Connectors on : yes
  Fallbacks on  : yes
  FFT flavor    : fftw3
  LINALG flavor : mkl
  TIMER flavor  : abinit
  TRIO flavor   : netcdf

 === Experimental features ===
  Exports             : no
  GW double-precision : yes

 Default optimizations:
   -O3

 Optimizations for 43_ptgroups:
   -O0

 CPP options activated during the build:

                  CC_INTEL                   CXX_GNU                  FC_INTEL

 HAVE_FC_ALLOCATABLE_DT...             HAVE_FC_ASYNC  HAVE_FC_COMMAND_ARGUMENT

        HAVE_FC_CONTIGUOUS           HAVE_FC_CPUTIME             HAVE_FC_ETIME

              HAVE_FC_EXIT             HAVE_FC_FLUSH             HAVE_FC_GAMMA

            HAVE_FC_GETENV            HAVE_FC_GETPID   HAVE_FC_IEEE_ARITHMETIC

   HAVE_FC_IEEE_EXCEPTIONS             HAVE_FC_IOMSG     HAVE_FC_ISO_C_BINDING

  HAVE_FC_ISO_FORTRAN_2008        HAVE_FC_LONG_LINES        HAVE_FC_MOVE_ALLOC

  HAVE_FC_ON_THE_FLY_SHAPE           HAVE_FC_PRIVATE         HAVE_FC_PROTECTED

           HAVE_FC_SHIFTLR         HAVE_FC_STREAM_IO            HAVE_FC_SYSTEM

                  HAVE_FFT            HAVE_FFT_FFTW3              HAVE_FFT_MPI

           HAVE_FFT_SERIAL               HAVE_GW_DPC        HAVE_LIBPAW_ABINIT

         HAVE_LINALG_AXPBY        HAVE_LINALG_GEMM3M  HAVE_LINALG_MKL_IMATCOPY

   HAVE_LINALG_MKL_OMATADD  HAVE_LINALG_MKL_OMATCOPY   HAVE_LINALG_MKL_THREADS

        HAVE_LINALG_SERIAL                  HAVE_MPI                 HAVE_MPI2

       HAVE_MPI_IALLREDUCE        HAVE_MPI_IALLTOALL       HAVE_MPI_IALLTOALLV

           HAVE_MPI_IBCAST         HAVE_MPI_IGATHERV        HAVE_MPI_INTEGER16

               HAVE_MPI_IO HAVE_MPI_TYPE_CREATE_S...               HAVE_NETCDF

           HAVE_NETCDF_MPI                HAVE_NUMPY             HAVE_OS_LINUX

         HAVE_TIMER_ABINIT                  HAVE_XML              USE_MACROAVE

- input  file    -> sp.in
- output file    -> sp.out
- root for input  files -> spi
- root for output files -> spo

-instrng: 56 lines of input have been read from file sp.in

 Please give name of formatted atomic psp file
 For atom type 1, psp file is /CECI/home/ucl/naps/jovbever/.PsP/CTO/Ca.psp8

 Please give name of formatted atomic psp file
 For atom type 2, psp file is /CECI/home/ucl/naps/jovbever/.PsP/CTO/Ti.psp8

 Please give name of formatted atomic psp file
 For atom type 3, psp file is /CECI/home/ucl/naps/jovbever/.PsP/CTO/O.psp8
  read the values zionpsp= 10.0 , pspcod=   8 , lmax=   2
  read the values zionpsp= 12.0 , pspcod=   8 , lmax=   2
  read the values zionpsp=  6.0 , pspcod=   8 , lmax=   2

 inpspheads: deduce mpsang = 3, n1xccc = 2501.

invars1m : enter jdtset= 0

 symlatt: the Bravais lattice is oP (primitive orthorhombic)
  xred   is defined in input file
 ingeo: takes atomic coordinates from input array xred

 symlatt: the Bravais lattice is oP (primitive orthorhombic)

 symlatt: the Bravais lattice is oP (primitive orthorhombic)
 symspgr: spgroup=  62  Pn m a   (=D2h^16)

--- !WARNING
src_file: m_mpinfo.F90
src_line: 2286
message: |
    nproc_kpt= 3 >= nkpt= 1* nsppol= 1
...

--- !WARNING
src_file: m_mpi_setup.F90
src_line: 704
message: |
    Your number of spins*k-points (=1) will not distribute correctly
    You will leave some empty.
    YOU ARE STRONGLY ADVICED TO ACTIVATE AUTOMATIC PARALLELIZATION!
    PUT "AUTOPARAL=1" IN THE INPUT FILE.
...

 For input ecut=  8.000000E+01 best grid ngfft=      45      48      64
       max ecut=  8.178703E+01

 ==== FFT mesh ====
  FFT mesh divisions ........................    45   48   64
  Augmented FFT divisions ...................    45   49   64
  FFT algorithm .............................   312
  FFT cache size ............................    16
 getmpw: optimal value of mpw= 7836

 Symmetries : space group Pn m a (# 62); Bravais oP (primitive ortho.)

 getdim_nloc : deduce lmnmax  =  18, lnmax  =   6,
                      lmnmaxso=  18, lnmaxso=   6.
     intxc =       0    ionmov =       0      iscf =       7    lmnmax =       6
     lnmax =       6     mgfft =      64  mpssoang =       3    mqgrid =    3100
     natom =      20  nloc_mem =       1    nspden =       1   nspinor =       1
    nsppol =       1      nsym =       8    n1xccc =    2501    ntypat =       3
    occopt =       1   xclevel =       1
-    mband =          80        mffmem =           1         mkmem =           1
       mpw =        7836          nfft =      138240          nkpt =           1
  Rough estimation (10% accuracy) of disk space for files :

 The job will continue.
------------- Echo of variables that govern the present computation ------------
-
- outvars: echo of selected default values
-   iomode0 =  0 , fftalg0 =312 , wfoptalg0 =  0
-
- outvars: echo of global parameters not present in the input file
-  max_nthreads =    0
-
 -outvars: echo values of preprocessed input variables --------

 These variables are accessible in NetCDF format (spo_OUT.nc)

            acell      5.4040000000E+00  5.5130000000E+00  7.6970000000E+00 Bohr
              amu      4.00780000E+01  4.78800000E+01  1.59994000E+01
             ecut      8.00000000E+01 Hartree
-          fftalg         312
              kpt      2.50000000E-01  2.50000000E-01  2.50000000E-01
         kptrlatt        2    0    0      0    2    0      0    0    2
          kptrlen      1.08080000E+01
P           mkmem           1
            natom          20
            nband          80
            ngfft          45      48      64
             nkpt           1
             nsym           8
           ntypat           3
              occ      2.000000  2.000000  2.000000  2.000000  2.000000  2.000000
                       2.000000  2.000000  2.000000  2.000000  2.000000  2.000000
                       2.000000  2.000000  2.000000  2.000000  2.000000  2.000000
                       2.000000  2.000000  2.000000  2.000000  2.000000  2.000000
                       2.000000  2.000000  2.000000  2.000000  2.000000  2.000000
                       2.000000  2.000000  2.000000  2.000000  2.000000  2.000000
                       2.000000  2.000000  2.000000  2.000000  2.000000  2.000000
                       2.000000  2.000000  2.000000  2.000000  2.000000  2.000000
                       2.000000  2.000000  2.000000  2.000000  2.000000  2.000000
                       2.000000  2.000000  2.000000  2.000000  2.000000  2.000000
                       2.000000  2.000000  2.000000  2.000000  2.000000  2.000000
                       2.000000  2.000000  2.000000  2.000000  2.000000  2.000000
                       2.000000  2.000000  2.000000  2.000000  2.000000  2.000000
                       2.000000  2.000000
           shiftk      5.00000000E-01  5.00000000E-01  5.00000000E-01
          spgroup          62
           symrel      1  0  0   0  1  0   0  0  1      -1  0  0   0 -1  0   0  0 -1
                      -1  0  0   0  1  0   0  0 -1       1  0  0   0 -1  0   0  0  1
                      -1  0  0   0 -1  0   0  0  1       1  0  0   0  1  0   0  0 -1
                       1  0  0   0 -1  0   0  0 -1      -1  0  0   0  1  0   0  0  1
            tnons      0.0000000  0.0000000  0.0000000     0.0000000  0.0000000  0.0000000
                       0.5000000  0.5000000  0.5000000     0.5000000  0.5000000  0.5000000
                       0.0000000  0.0000000  0.5000000     0.0000000  0.0000000  0.5000000
                       0.5000000  0.5000000  0.0000000     0.5000000  0.5000000  0.0000000
           toldfe      1.00000000E-10 Hartree
            typat      1  1  1  1  2  2  2  2  3  3  3  3  3  3  3  3  3  3  3  3
           xangst      2.4307225899E-02  2.7866564940E+00  3.0548077309E+00
                       1.4055295917E+00  1.3279795185E+00  3.0548077309E+00
                       1.4541440435E+00  1.5893744325E+00  1.0182692436E+00
                       2.8353664093E+00  1.3069745700E-01  1.0182692436E+00
                       0.0000000000E+00  1.4586769755E+00  0.0000000000E+00
                       0.0000000000E+00  1.4586769755E+00  2.0365384873E+00
                       1.4298368176E+00  0.0000000000E+00  0.0000000000E+00
                       1.4298368176E+00  0.0000000000E+00  2.0365384873E+00
                       2.2334051091E-01  1.3985794841E+00  1.0182692436E+00
                       5.9338227931E-01  6.0710135719E-01  2.2023127201E+00
                       5.9338227931E-01  6.0710135719E-01  3.9073027417E+00
                       8.3645453830E-01  2.0657783327E+00  3.9073027417E+00
                       8.3645453830E-01  2.0657783327E+00  2.2023127201E+00
                       1.2064963067E+00  2.8572564596E+00  1.0182692436E+00
                       1.6531773285E+00  6.0097491390E-02  3.0548077309E+00
                       2.0232190969E+00  8.5157561828E-01  1.8707642544E+00
                       2.0232190969E+00  8.5157561828E-01  1.6577423286E-01
                       2.2662913559E+00  2.3102525938E+00  1.6577423286E-01
                       2.2662913559E+00  2.3102525938E+00  1.8707642544E+00
                       2.6363331243E+00  1.5187744669E+00  3.0548077309E+00
            xcart      4.5934000000E-02  5.2660176000E+00  5.7727500000E+00
                       2.6560660000E+00  2.5095176000E+00  5.7727500000E+00
                       2.7479340000E+00  3.0034824000E+00  1.9242500000E+00
                       5.3580660000E+00  2.4698240000E-01  1.9242500000E+00
                       0.0000000000E+00  2.7565000000E+00  0.0000000000E+00
                       0.0000000000E+00  2.7565000000E+00  3.8485000000E+00
                       2.7020000000E+00  0.0000000000E+00  0.0000000000E+00
                       2.7020000000E+00  0.0000000000E+00  3.8485000000E+00
                       4.2205240000E-01  2.6429322000E+00  1.9242500000E+00
                       1.1213300000E+00  1.1472553000E+00  4.1617679000E+00
                       1.1213300000E+00  1.1472553000E+00  7.3837321000E+00
                       1.5806700000E+00  3.9037553000E+00  7.3837321000E+00
                       1.5806700000E+00  3.9037553000E+00  4.1617679000E+00
                       2.2799476000E+00  5.3994322000E+00  1.9242500000E+00
                       3.1240524000E+00  1.1356780000E-01  5.7727500000E+00
                       3.8233300000E+00  1.6092447000E+00  3.5352321000E+00
                       3.8233300000E+00  1.6092447000E+00  3.1326790000E-01
                       4.2826700000E+00  4.3657447000E+00  3.1326790000E-01
[...]
  XC functional for type 3 is 11
  Pseudo valence available: yes

 wfconv:    80 bands initialized randomly with npw=  7836, for ikpt=     1
_setup2: Arith. and geom. avg. npw (full set) are    7836.000    7836.000
 initro: for itypat=  1, take pseudo charge density from pp file
 initro: for itypat=  2, take pseudo charge density from pp file
 initro: for itypat=  3, take pseudo charge density from pp file

 getcut: wavevector=  0.0000  0.0000  0.0000  ngfft=  45  48  64
         ecut(hartree)=     80.000   => boxcut(ratio)=   2.02221

 ITER STEP NUMBER     1
 vtorho: nnsclo_now=2, note that nnsclo,dbl_nnsclo,istep=0 0 1

--- !WARNING
src_file: m_vtorho.F90
src_line: 1699
message: |
    For k-point number 1,
    The minimal occupation factor is  2.000.
    An adequate monitoring of convergence requires it to be  at most 0.01_dp.
    Action: increase slightly the number of bands.
...

 Total charge density [el/Bohr^3]
      Maximum=    1.8682E+00  at reduced coord.    0.0000    0.6042    0.9531
      Minimum=    5.0820E-02  at reduced coord.    0.5111    0.5417    0.2500
   Integrated=    1.6000E+02
 ETOT  1  -534.88654276342    -5.349E+02 2.355E-01 3.583E+03
 scprqt: <Vxc>= -9.4139164E-01 hartree

 Simple mixing update:
  residual square of the potential:    2339.73531014467
 scfcv_core: previous iteration took 31.13 [s]

[...]

 Pulay update with  1 previous iterations:
 mixing of old trial potential: alpha(m:m-4)=  0.565      0.435
 scfcv_core: previous iteration took 28.70 [s]

[...]

 ITER STEP NUMBER     5
 vtorho: nnsclo_now=1, note that nnsclo,dbl_nnsclo,istep=0 0 5

--- !WARNING
src_file: m_vtorho.F90
src_line: 1699
message: |
    For k-point number 1,
    The minimal occupation factor is  2.000.
    An adequate monitoring of convergence requires it to be  at most 0.01_dp.
    Action: increase slightly the number of bands.
...

 Total charge density [el/Bohr^3]
      Maximum=    1.8014E+00  at reduced coord.    0.0000    0.6042    0.9531
      Minimum=    5.1099E-02  at reduced coord.    0.5111    0.5417    0.2500
   Integrated=    1.6000E+02
 ETOT  5  -537.64658972629    -3.076E-02 4.804E-03 5.915E+00
 scprqt: <Vxc>= -9.4573794E-01 hartree

[...]

 ITER STEP NUMBER     6
 vtorho: nnsclo_now=1, note that nnsclo,dbl_nnsclo,istep=0 0 6
 Total charge density [el/Bohr^3]
      Maximum=    1.7964E+00  at reduced coord.    0.0000    0.6042    0.9531
      Minimum=    5.1141E-02  at reduced coord.    0.5111    0.5417    0.2500
   Integrated=    1.6000E+02
 ETOT  6  -537.66236402586    -1.577E-02 2.647E-03 2.910E-01
 scprqt: <Vxc>= -9.4570647E-01 hartree

[...]

 Pulay update with  7 previous iterations:
 mixing of old trial potential: alpha(m:m-4)=  0.753      -1.60       1.91     -0.504     -0.238
 scfcv_core: previous iteration took 14.70 [s]

 ITER STEP NUMBER    30
 vtorho: nnsclo_now=1, note that nnsclo,dbl_nnsclo,istep=0 0 30
 Total charge density [el/Bohr^3]
      Maximum=    1.7885E+00  at reduced coord.    0.0000    0.6042    0.9531
      Minimum=    5.1058E-02  at reduced coord.    0.5111    0.5417    0.2500
   Integrated=    1.6000E+02
 ETOT 30  -537.68235757977    -4.446E-06 1.520E-06 2.073E-04
 scprqt: <Vxc>= -9.4574084E-01 hartree

 Pulay update with  7 previous iterations:
 mixing of old trial potential: alpha(m:m-4)=   2.17     -0.526      -1.58       1.14      -1.41

 Cartesian components of stress tensor (hartree/bohr^3)
  sigma(1 1)= -3.37761313E-01  sigma(3 2)=  0.00000000E+00
  sigma(2 2)= -3.30412843E-01  sigma(3 1)=  0.00000000E+00
  sigma(3 3)= -3.44981388E-01  sigma(2 1)=  0.00000000E+00

--- !ScfConvergenceWarning
message: |
    nstep 30 was not enough SCF cycles to converge.
...

 scprqt:  WARNING -
  nstep=   30 was not enough SCF cycles to converge;
  maximum energy difference=  4.446E-06 exceeds toldfe=  1.000E-10

   fftdatar_write: About to write data to: spo_DEN with iomode: IO_MODE_FORTRAN

 ----iterations are completed or convergence reached----

 === Gap info ===
Not enough states to calculate the band gap.
 Mean square residual over all n,k,spin=   19.007E-09; max=  15.205E-07
   0.2500  0.2500  0.2500    1  1.52046E-06 kpt; spin; max resid(k); each band:
  7.69E-13 6.79E-13 6.22E-13 5.68E-13 8.59E-13 7.57E-13 8.12E-13 6.56E-13
  7.49E-13 5.32E-13 6.93E-13 6.62E-13 3.93E-13 5.47E-13 5.53E-13 4.07E-13
  1.38E-12 1.09E-12 1.37E-12 7.31E-13 1.27E-12 1.18E-12 1.06E-12 9.87E-13
  6.16E-13 9.79E-13 9.25E-13 9.02E-13 1.04E-12 8.77E-13 8.38E-13 7.32E-13
  9.05E-13 5.44E-13 9.61E-13 9.75E-13 7.72E-13 9.13E-13 6.99E-13 7.63E-13
  6.06E-13 8.08E-13 1.10E-12 7.31E-13 9.79E-13 8.47E-13 1.31E-12 7.46E-13
  7.18E-13 9.93E-13 8.89E-13 1.02E-12 8.52E-13 8.54E-13 9.00E-13 9.37E-13
  1.08E-12 7.15E-13 1.02E-12 8.06E-13 9.58E-13 8.35E-13 9.39E-13 7.06E-13
  9.25E-13 8.43E-13 9.47E-13 7.78E-13 9.92E-13 1.19E-12 1.08E-12 9.80E-13
  1.39E-12 1.38E-12 1.68E-12 1.20E-12 1.40E-12 2.90E-12 4.63E-11 1.52E-06

   outwf: writing wavefunctions to: spo_WFK with iomode: IO_MODE_FORTRAN_MASTER
 prteigrs : about to open file spo_EIG
 Fermi (or HOMO) energy (hartree) =   2.38485   Average Vxc (hartree)=  -0.94574
 Eigenvalues (hartree) for nkpt=   1  k points:
 kpt#   1, nband= 80, wtk=  1.00000, kpt=  0.2500  0.2500  0.2500 (reduced coord)
  -0.81531   -0.75216   -0.73037   -0.68497   -0.28993   -0.27408   -0.18196   -0.17904
  -0.12610   -0.09975   -0.05933   -0.02318   -0.00004    0.05288    0.06078    0.10598
   0.20208    0.32309    0.33749    0.46061    0.48185    0.51684    0.58563    0.63596
   0.67166    0.68073    0.70839    0.75726    0.78187    0.80332    0.82233    0.84471
   0.84566    0.88698    0.92749    0.95854    0.98348    1.01394    1.04242    1.05643
   1.13349    1.16041    1.19633    1.22925    1.25249    1.30670    1.34542    1.38082
   1.41100    1.44920    1.47905    1.53544    1.59534    1.61303    1.67257    1.69661
   1.71912    1.78468    1.79260    1.80831    1.81721    1.88198    1.89847    1.91922
   1.93194    1.98883    2.00900    2.07688    2.10545    2.14997    2.17320    2.19977
   2.21117    2.23909    2.24923    2.25584    2.27421    2.30612    2.35057    2.38485
 Total charge density [el/Bohr^3]
      Maximum=    1.7885E+00  at reduced coord.    0.0000    0.6042    0.9531
 Next maximum=    1.7885E+00  at reduced coord.    0.0000    0.6042    0.5469
      Minimum=    5.1058E-02  at reduced coord.    0.5111    0.5417    0.2500
 Next minimum=    5.1058E-02  at reduced coord.    0.4889    0.4583    0.7500
   Integrated=    1.6000E+02

 Cartesian components of stress tensor (hartree/bohr^3)
  sigma(1 1)= -3.37761313E-01  sigma(3 2)=  0.00000000E+00
  sigma(2 2)= -3.30412843E-01  sigma(3 1)=  0.00000000E+00
  sigma(3 3)= -3.44981388E-01  sigma(2 1)=  0.00000000E+00

-Cartesian components of stress tensor (GPa)         [Pressure=  9.9360E+03 GPa]
- sigma(1 1)= -9.93727923E+03  sigma(3 2)=  0.00000000E+00
- sigma(2 2)= -9.72107981E+03  sigma(3 1)=  0.00000000E+00
- sigma(3 3)= -1.01497011E+04  sigma(2 1)=  0.00000000E+00

== END DATASET(S) ==============================================================

 -outvars: echo values of variables after computation  --------

 These variables are accessible in NetCDF format (spo_OUT.nc)

            acell      5.4040000000E+00  5.5130000000E+00  7.6970000000E+00 Bohr
              amu      4.00780000E+01  4.78800000E+01  1.59994000E+01
             ecut      8.00000000E+01 Hartree
           etotal     -5.3768235758E+02
            fcart     -7.6384143967E-02  5.9347030902E-01 -3.4694469520E-19
                       7.6384143967E-02  5.9347030902E-01 -3.4694469520E-19
                      -7.6384143967E-02 -5.9347030902E-01 -3.4694469520E-19
                       7.6384143967E-02 -5.9347030902E-01 -3.4694469520E-19
                       0.0000000000E+00 -5.5511151231E-18 -3.4694469520E-19
                       0.0000000000E+00 -5.5511151231E-18 -3.4694469520E-19
                       0.0000000000E+00 -5.5511151231E-18 -3.4694469520E-19
                       0.0000000000E+00 -5.5511151231E-18 -3.4694469520E-19
                       1.8644572547E-01  2.1342999233E-01 -3.4694469520E-19
                      -1.6894326808E-01 -3.6757141714E-02  3.8736793872E-02
                      -1.6894326808E-01 -3.6757141714E-02 -3.8736793872E-02
                       1.6894326808E-01 -3.6757141714E-02 -3.8736793872E-02
                       1.6894326808E-01 -3.6757141714E-02  3.8736793872E-02
                      -1.8644572547E-01  2.1342999233E-01 -3.4694469520E-19
                       1.8644572547E-01 -2.1342999233E-01 -3.4694469520E-19
                      -1.6894326808E-01  3.6757141714E-02 -3.8736793872E-02
                      -1.6894326808E-01  3.6757141714E-02  3.8736793872E-02
                       1.6894326808E-01  3.6757141714E-02  3.8736793872E-02
                       1.6894326808E-01  3.6757141714E-02 -3.8736793872E-02
                      -1.8644572547E-01 -2.1342999233E-01 -3.4694469520E-19
-          fftalg         312
              kpt      2.50000000E-01  2.50000000E-01  2.50000000E-01
         kptrlatt        2    0    0      0    2    0      0    0    2
          kptrlen      1.08080000E+01
P           mkmem           1
            natom          20
            nband          80
            ngfft          45      48      64
             nkpt           1
             nsym           8
           ntypat           3
              occ      2.000000  2.000000  2.000000  2.000000  2.000000  2.000000
                       2.000000  2.000000  2.000000  2.000000  2.000000  2.000000
                       2.000000  2.000000  2.000000  2.000000  2.000000  2.000000
                       2.000000  2.000000  2.000000  2.000000  2.000000  2.000000
                       2.000000  2.000000  2.000000  2.000000  2.000000  2.000000
                       2.000000  2.000000  2.000000  2.000000  2.000000  2.000000
                       2.000000  2.000000  2.000000  2.000000  2.000000  2.000000
                       2.000000  2.000000  2.000000  2.000000  2.000000  2.000000
                       2.000000  2.000000  2.000000  2.000000  2.000000  2.000000
                       2.000000  2.000000  2.000000  2.000000  2.000000  2.000000
                       2.000000  2.000000  2.000000  2.000000  2.000000  2.000000
                       2.000000  2.000000  2.000000  2.000000  2.000000  2.000000
                       2.000000  2.000000  2.000000  2.000000  2.000000  2.000000
                       2.000000  2.000000
           shiftk      5.00000000E-01  5.00000000E-01  5.00000000E-01
          spgroup          62
           strten     -3.3776131279E-01 -3.3041284262E-01 -3.4498138789E-01
                       0.0000000000E+00  0.0000000000E+00  0.0000000000E+00
           symrel      1  0  0   0  1  0   0  0  1      -1  0  0   0 -1  0   0  0 -1
                      -1  0  0   0  1  0   0  0 -1       1  0  0   0 -1  0   0  0  1
                      -1  0  0   0 -1  0   0  0  1       1  0  0   0  1  0   0  0 -1
                       1  0  0   0 -1  0   0  0 -1      -1  0  0   0  1  0   0  0  1
            tnons      0.0000000  0.0000000  0.0000000     0.0000000  0.0000000  0.0000000
                       0.5000000  0.5000000  0.5000000     0.5000000  0.5000000  0.5000000
                       0.0000000  0.0000000  0.5000000     0.0000000  0.0000000  0.5000000
                       0.5000000  0.5000000  0.0000000     0.5000000  0.5000000  0.0000000
           toldfe      1.00000000E-10 Hartree
            typat      1  1  1  1  2  2  2  2  3  3  3  3  3  3  3  3  3  3  3  3
           xangst      2.4307225899E-02  2.7866564940E+00  3.0548077309E+00
                       1.4055295917E+00  1.3279795185E+00  3.0548077309E+00
                       1.4541440435E+00  1.5893744325E+00  1.0182692436E+00
                       2.8353664093E+00  1.3069745700E-01  1.0182692436E+00
                       0.0000000000E+00  1.4586769755E+00  0.0000000000E+00
                       0.0000000000E+00  1.4586769755E+00  2.0365384873E+00
                       1.4298368176E+00  0.0000000000E+00  0.0000000000E+00
                       1.4298368176E+00  0.0000000000E+00  2.0365384873E+00
                       2.2334051091E-01  1.3985794841E+00  1.0182692436E+00
                       5.9338227931E-01  6.0710135719E-01  2.2023127201E+00
                       5.9338227931E-01  6.0710135719E-01  3.9073027417E+00
                       8.3645453830E-01  2.0657783327E+00  3.9073027417E+00
                       8.3645453830E-01  2.0657783327E+00  2.2023127201E+00
                       1.2064963067E+00  2.8572564596E+00  1.0182692436E+00
                       1.6531773285E+00  6.0097491390E-02  3.0548077309E+00
                       2.0232190969E+00  8.5157561828E-01  1.8707642544E+00
                       2.0232190969E+00  8.5157561828E-01  1.6577423286E-01
                       2.2662913559E+00  2.3102525938E+00  1.6577423286E-01
                       2.2662913559E+00  2.3102525938E+00  1.8707642544E+00
                       2.6363331243E+00  1.5187744669E+00  3.0548077309E+00
            xcart      4.5934000000E-02  5.2660176000E+00  5.7727500000E+00
                       2.6560660000E+00  2.5095176000E+00  5.7727500000E+00
                       2.7479340000E+00  3.0034824000E+00  1.9242500000E+00
                       5.3580660000E+00  2.4698240000E-01  1.9242500000E+00
                       0.0000000000E+00  2.7565000000E+00  0.0000000000E+00
                       0.0000000000E+00  2.7565000000E+00  3.8485000000E+00
                       2.7020000000E+00  0.0000000000E+00  0.0000000000E+00
                       2.7020000000E+00  0.0000000000E+00  3.8485000000E+00
                       4.2205240000E-01  2.6429322000E+00  1.9242500000E+00
                       1.1213300000E+00  1.1472553000E+00  4.1617679000E+00
                       1.1213300000E+00  1.1472553000E+00  7.3837321000E+00
                       1.5806700000E+00  3.9037553000E+00  7.3837321000E+00
                       1.5806700000E+00  3.9037553000E+00  4.1617679000E+00
                       2.2799476000E+00  5.3994322000E+00  1.9242500000E+00
                       3.1240524000E+00  1.1356780000E-01  5.7727500000E+00
                       3.8233300000E+00  1.6092447000E+00  3.5352321000E+00
                       3.8233300000E+00  1.6092447000E+00  3.1326790000E-01
                       4.2826700000E+00  4.3657447000E+00  3.1326790000E-01
                       4.2826700000E+00  4.3657447000E+00  3.5352321000E+00
                       4.9819476000E+00  2.8700678000E+00  5.7727500000E+00
             xred      8.5000000000E-03  9.5520000000E-01  7.5000000000E-01
                       4.9150000000E-01  4.5520000000E-01  7.5000000000E-01
                       5.0850000000E-01  5.4480000000E-01  2.5000000000E-01
                       9.9150000000E-01  4.4800000000E-02  2.5000000000E-01
                       0.0000000000E+00  5.0000000000E-01  0.0000000000E+00
                       0.0000000000E+00  5.0000000000E-01  5.0000000000E-01
                       5.0000000000E-01  0.0000000000E+00  0.0000000000E+00
                       5.0000000000E-01  0.0000000000E+00  5.0000000000E-01
                       7.8100000000E-02  4.7940000000E-01  2.5000000000E-01
                       2.0750000000E-01  2.0810000000E-01  5.4070000000E-01
                       2.0750000000E-01  2.0810000000E-01  9.5930000000E-01
                       2.9250000000E-01  7.0810000000E-01  9.5930000000E-01
                       2.9250000000E-01  7.0810000000E-01  5.4070000000E-01
                       4.2190000000E-01  9.7940000000E-01  2.5000000000E-01
                       5.7810000000E-01  2.0600000000E-02  7.5000000000E-01
                       7.0750000000E-01  2.9190000000E-01  4.5930000000E-01
                       7.0750000000E-01  2.9190000000E-01  4.0700000000E-02
                       7.9250000000E-01  7.9190000000E-01  4.0700000000E-02
                       7.9250000000E-01  7.9190000000E-01  4.5930000000E-01
                       9.2190000000E-01  5.2060000000E-01  7.5000000000E-01
            znucl       20.00000   22.00000    8.00000

 Suggested references for the acknowledgment of ABINIT usage.

 Calculation completed.
.Delivered   1 WARNINGs and   0 COMMENTs to log file.

--- !FinalSummary
program: abinit
version: 8.11.13
start_datetime: Thu Dec 12 17:35:55 2019
end_datetime: Thu Dec 12 17:43:59 2019
overall_cpu_time:         724.7
overall_wall_time:        1450.4
exit_requested_by_user: no
timelimit: 0
pseudos:
    Ca  : 465a3a044f2c7a72aff2b3fb3f797e8d
    Ti  : ea4ed3d71d7ed9998c7c8ddd5e23a4a6
    O   : abbcf0645b4a6d69360cd16bcad3e730
usepaw: 0
mpi_procs: 3
omp_threads: 1
num_warnings: 1
num_comments: 0
...