.Version 8.11.13 of ABINIT

 ABINIT is a project of the Universite Catholique de Louvain,
 Corning Inc. and other collaborators, see ~abinit/doc/developers/contributors.txt .
 acknowledgments of the ABINIT effort.

.Starting date : Fri 10 Jan 2020.
- ( at 12h22 )

- input  file    -> opt.in
- output file    -> opt.out
- root for input  files -> opti
- root for output files -> opto

 Symmetries : space group Im m a (# 74); Bravais oI (body-center ortho.)
     intxc =       0    ionmov =       2      iscf =       7    lmnmax =       6
     lnmax =       6     mgfft =      30  mpssoang =       3    mqgrid =    3001
     natom =       2  nloc_mem =       1    nspden =       1   nspinor =       1
    nsppol =       1      nsym =       8    n1xccc =    2501    ntypat =       1
    occopt =       1   xclevel =       2
-    mband =           6        mffmem =           1         mkmem =           7
       mpw =         857          nfft =       27000          nkpt =          40
  Rough estimation (10% accuracy) of disk space for files :

------------- Echo of variables that govern the present computation ------------
-
- outvars: echo of selected default values
-   iomode0 =  0 , fftalg0 =312 , wfoptalg0 =  0
-
- outvars: echo of global parameters not present in the input file
-  max_nthreads =    0
-
 -outvars: echo values of preprocessed input variables --------
            acell      1.1338356797E+01  1.1338356797E+01  1.1338356797E+01 Bohr
              amu      2.80855000E+01
          dilatmx      1.05000000E+00
             ecut      1.20000000E+01 Hartree
           ecutsm      5.00000000E-01 Hartree
-          fftalg         312
           ionmov           2
              ixc          11
              kpt     -1.25000000E-01 -2.50000000E-01  0.00000000E+00
                      -2.50000000E-01 -1.25000000E-01  0.00000000E+00
                      -1.25000000E-01  5.00000000E-01  0.00000000E+00
                      -2.50000000E-01 -3.75000000E-01  0.00000000E+00
                      -1.25000000E-01 -3.75000000E-01  1.25000000E-01
                      -3.75000000E-01 -2.50000000E-01  0.00000000E+00
                      -1.25000000E-01 -2.50000000E-01  2.50000000E-01
                       5.00000000E-01 -1.25000000E-01  0.00000000E+00
                      -3.75000000E-01 -1.25000000E-01  1.25000000E-01
                      -1.25000000E-01  2.50000000E-01  0.00000000E+00
                      -2.50000000E-01  3.75000000E-01  0.00000000E+00
                      -3.75000000E-01  5.00000000E-01  0.00000000E+00
                      -2.50000000E-01  5.00000000E-01  1.25000000E-01
                       5.00000000E-01 -3.75000000E-01  0.00000000E+00
                      -2.50000000E-01 -3.75000000E-01  2.50000000E-01
                       3.75000000E-01 -2.50000000E-01  0.00000000E+00
                       5.00000000E-01 -2.50000000E-01  1.25000000E-01
                       2.50000000E-01 -1.25000000E-01  0.00000000E+00
                       3.75000000E-01 -1.25000000E-01  1.25000000E-01
                       5.00000000E-01 -1.25000000E-01  2.50000000E-01
                      -1.25000000E-01  0.00000000E+00  0.00000000E+00
                       3.75000000E-01 -3.75000000E-01  1.25000000E-01
                       2.50000000E-01 -2.50000000E-01  1.25000000E-01
                       3.75000000E-01 -2.50000000E-01  2.50000000E-01
                       0.00000000E+00 -1.25000000E-01  0.00000000E+00
                       1.25000000E-01 -1.25000000E-01  1.25000000E-01
                       2.50000000E-01 -1.25000000E-01  2.50000000E-01
                       3.75000000E-01 -1.25000000E-01  3.75000000E-01
                      -3.75000000E-01  0.00000000E+00  0.00000000E+00
                      -2.50000000E-01  0.00000000E+00  1.25000000E-01
                       2.50000000E-01  5.00000000E-01  1.25000000E-01
                       0.00000000E+00 -3.75000000E-01  0.00000000E+00
                       1.25000000E-01 -3.75000000E-01  1.25000000E-01
                       2.50000000E-01 -3.75000000E-01  2.50000000E-01
                      -2.50000000E-01 -3.75000000E-01 -2.50000000E-01
                       5.00000000E-01  0.00000000E+00  1.25000000E-01
                      -3.75000000E-01  0.00000000E+00  2.50000000E-01
                       2.50000000E-01  0.00000000E+00  1.25000000E-01
                       3.75000000E-01  0.00000000E+00  2.50000000E-01
                       5.00000000E-01  0.00000000E+00  3.75000000E-01
         kptrlatt        4   -4    4     -4    4    4     -4   -4    4
          kptrlen      4.53534272E+01
P           mkmem           7
            natom           2
            nband           6
            ngfft          30      30      30
             nkpt          40
             nsym           8
            ntime          15
           ntypat           1
              occ      2.000000  2.000000  2.000000  2.000000  0.000000  0.000000
          optcell           2
            rprim      5.0000000000E-01  5.0000000000E-01  0.0000000000E+00
                       0.0000000000E+00  5.0000000000E-01  5.0000000000E-01
                       5.0000000000E-01  0.0000000000E+00  5.0000000000E-01
           shiftk      5.00000000E-01  5.00000000E-01  5.00000000E-01
          spgroup          74
           symrel      1  0  0   0  1  0   0  0  1      -1  0  0   0 -1  0   0  0 -1
                       0 -1  1   0 -1  0   1 -1  0       0  1 -1   0  1  0  -1  1  0
                       0  0  1   0  1  0   1  0  0       0  0 -1   0 -1  0  -1  0  0
                       1 -1  0   0 -1  0   0 -1  1      -1  1  0   0  1  0   0  1 -1
            tnons      0.0000000  0.0000000  0.0000000     0.2400000  0.2600000  0.2400000
                       0.0000000  0.0000000  0.0000000     0.2400000  0.2600000  0.2400000
                       0.0000000  0.0000000  0.0000000     0.2400000  0.2600000  0.2400000
                       0.0000000  0.0000000  0.0000000     0.2400000  0.2600000  0.2400000
           tolmxf      1.00000000E-08
           tolvrs      1.00000000E-10
            typat      1  1
              wtk        0.03125    0.03125    0.03125    0.03125    0.03125    0.03125
                         0.03125    0.03125    0.03125    0.03125    0.03125    0.03125
                         0.03125    0.03125    0.03125    0.03125    0.03125    0.03125
                         0.03125    0.03125    0.01563    0.03125    0.03125    0.03125
                         0.01563    0.01563    0.01563    0.01563    0.01563    0.01563
                         0.03125    0.01563    0.01563    0.01563    0.01563    0.01563
                         0.01563    0.01563    0.01563    0.01563
           xangst      0.0000000000E+00  0.0000000000E+00  0.0000000000E+00
                       1.4400000000E+00  1.5000000000E+00  1.5000000000E+00
            xcart      0.0000000000E+00  0.0000000000E+00  0.0000000000E+00
                       2.7212056314E+00  2.8345891993E+00  2.8345891993E+00
             xred      0.0000000000E+00  0.0000000000E+00  0.0000000000E+00
                       2.4000000000E-01  2.6000000000E-01  2.4000000000E-01
            znucl       14.00000

 chkinp: Checking input parameters for consistency.

 chkinp: WARNING -
   Chksymbreak=1 . Found potentially symmetry-breaking value of tnons,
   which is neither a rational fraction in 1/8th nor in 1/12th :
   for the symmetry number    2
   symrel is  -1  0  0  0 -1  0  0  0 -1
   tnons is     2.400000E-01    2.600000E-01    2.400000E-01
   Please, read the description of the input variable chksymbreak,
   then, if you feel confident, you might switch it to zero, or consult with the forum.

[...]

 chkinp: WARNING -
   Chksymbreak=1 . Found potentially symmetry-breaking value of tnons,
   which is neither a rational fraction in 1/8th nor in 1/12th :
   for the symmetry number    8
   symrel is  -1  1  0  0  1  0  0  1 -1
   tnons is     2.400000E-01    2.600000E-01    2.400000E-01
   Please, read the description of the input variable chksymbreak,
   then, if you feel confident, you might switch it to zero, or consult with the forum.

== DATASET  1 ==================================================================
-   nproc =    6

 Real(R)+Recip(G) space primitive vectors, cartesian coordinates (Bohr,Bohr^-1):
 R(1)=  5.6691784  5.6691784  0.0000000  G(1)=  0.0881962  0.0881962 -0.0881962
 R(2)=  0.0000000  5.6691784  5.6691784  G(2)= -0.0881962  0.0881962  0.0881962
 R(3)=  5.6691784  0.0000000  5.6691784  G(3)=  0.0881962 -0.0881962  0.0881962
 Unit cell volume ucvol=  3.6441007E+02 bohr^3
 Angles (23,13,12)=  6.00000000E+01  6.00000000E+01  6.00000000E+01 degrees

 getcut: wavevector=  0.0000  0.0000  0.0000  ngfft=  30  30  30
         ecut(hartree)=     13.230   => boxcut(ratio)=   2.28783

 getcut : COMMENT -
  Note that boxcut > 2.2 ; recall that boxcut=Gcut(box)/Gcut(sphere) = 2
  is sufficient for exact treatment of convolution.
  Such a large boxcut is a waste : you could raise ecut
  e.g. ecut=   17.311953 Hartrees makes boxcut=2

--- Pseudopotential description ------------------------------------------------
- pspini: atom type   1  psp file is /CECI/home/ucl/naps/jovbever/.PsP/Si/Si.psp8
- pspatm: opening atomic psp file    /CECI/home/ucl/naps/jovbever/.PsP/Si/Si.psp8
- Si    ONCVPSP-3.2.3.1  r_core=   1.60303   1.72197   1.91712
- 14.00000   4.00000    170510                znucl, zion, pspdat
    8   11    2    4       600   0.00000      pspcod,pspxc,lmax,lloc,mmax,r2well
    5.99000000000000    4.00000000000000    0.00000000000000   rchrg,fchrg,qchrg
     nproj     2     2     2
     extension_switch     1
  pspatm : epsatm=    9.34321699
         --- l  ekb(1:nproj) -->
             0    5.168965    0.829883
             1    2.571282    0.578307
             2   -2.427311   -0.488097
 pspatm: atomic psp has been read  and splines computed

   1.49491472E+02                                ecore*ucvol(ha*bohr**3)

_setup2: Arith. and geom. avg. npw (full set) are     838.125     838.107

=== [ionmov= 2] Broyden-Fletcher-Goldfard-Shanno method (forces)

--- Iteration: ( 1/15) Internal Cycle: (1/1)

---SELF-CONSISTENT-FIELD CONVERGENCE--------------------------------------------

     iter   Etot(hartree)      deltaE(h)  residm     vres2
 ETOT  1  -8.4335301818538    -8.434E+00 8.752E-03 1.669E+00
 ETOT  2  -8.4361583778383    -2.628E-03 3.173E-03 5.719E-02
 ETOT  3  -8.4361706309993    -1.225E-05 5.028E-04 1.555E-03
 ETOT  4  -8.4361707500412    -1.190E-07 3.101E-04 1.763E-04
 ETOT  5  -8.4361707660986    -1.606E-08 9.225E-05 9.016E-06
 ETOT  6  -8.4361707673672    -1.269E-09 8.873E-05 1.278E-07
 ETOT  7  -8.4361707673852    -1.794E-11 3.913E-05 1.020E-09
 ETOT  8  -8.4361707673853    -8.171E-14 3.234E-05 6.523E-12

 At SCF step    8       vres2   =  6.52E-12 < tolvrs=  1.00E-10 =>converged.

 Cartesian components of stress tensor (hartree/bohr^3)
  sigma(1 1)=  4.42507761E-04  sigma(3 2)= -4.26898174E-06
  sigma(2 2)=  4.41123395E-04  sigma(3 1)=  0.00000000E+00
  sigma(3 3)=  4.41123395E-04  sigma(2 1)=  0.00000000E+00

 Integrated electronic density in atomic spheres:
 Atom  Sphere_radius  Integrated_density
    1        2.00000          1.59244291
    2        2.00000          1.58866036

---OUTPUT-----------------------------------------------------------------------

 Cartesian coordinates (xcart) [bohr]
  0.00000000000000E+00  0.00000000000000E+00  0.00000000000000E+00
  2.72120563135533E+00  2.83458919932846E+00  2.83458919932846E+00
 Reduced coordinates (xred)
  0.00000000000000E+00  0.00000000000000E+00  0.00000000000000E+00
  2.40000000000000E-01  2.60000000000000E-01  2.40000000000000E-01
 Cartesian forces (fcart) [Ha/bohr]; max,rms= 8.72845E-03 5.03937E-03 (free atoms)
 -8.72844538553749E-03  4.33680868994202E-19 -4.33680868994202E-19
  8.72844538553749E-03 -4.33680868994202E-19  4.33680868994202E-19
 Reduced forces (fred)
  4.94831140335459E-02  0.00000000000000E+00  4.94831140335459E-02
 -4.94831140335459E-02  0.00000000000000E+00 -4.94831140335459E-02
 Scale of Primitive Cell (acell) [bohr]
  1.13383567973139E+01  1.13383567973139E+01  1.13383567973139E+01
 Real space primitive translations (rprimd) [bohr]
  5.66917839865693E+00  5.66917839865693E+00  0.00000000000000E+00
  0.00000000000000E+00  5.66917839865693E+00  5.66917839865693E+00
  5.66917839865693E+00  0.00000000000000E+00  5.66917839865693E+00
 Unitary Cell Volume (ucvol) [Bohr^3]=  3.64410067486860E+02
 Angles (23,13,12)= [degrees]
  6.00000000000000E+01  6.00000000000000E+01  6.00000000000000E+01
 Lengths [Bohr]
  8.01742897889321E+00  8.01742897889321E+00  8.01742897889321E+00
 Stress tensor in cartesian coordinates (strten) [Ha/bohr^3]
  4.42507761060783E-04  0.00000000000000E+00  0.00000000000000E+00
  0.00000000000000E+00  4.41123394968312E-04 -4.26898174170842E-06
  0.00000000000000E+00 -4.26898174170842E-06  4.41123394968311E-04
 Total energy (etotal) [Ha]= -8.43617076738526E+00

[...]

 Difference of energy with previous step (new-old):
           Absolute (Ha)=-6.28705E-03
           Relative     =-7.44972E-04

[...]

--- Iteration: ( 9/15) Internal Cycle: (1/1)

[...]

--- Iteration: (10/15) Internal Cycle: (1/1)

[...]

--- Iteration: (15/15) Internal Cycle: (1/1)

---SELF-CONSISTENT-FIELD CONVERGENCE--------------------------------------------

     iter   Etot(hartree)      deltaE(h)  residm     vres2
 ETOT  1  -8.4621588555090    -8.462E+00 8.014E-09 6.518E-08
 ETOT  2  -8.4621588555179    -8.853E-12 6.649E-09 5.496E-10
 ETOT  3  -8.4621588555179    -4.441E-14 6.001E-09 5.552E-11

 At SCF step    3       vres2   =  5.55E-11 < tolvrs=  1.00E-10 =>converged.

[...]

 Integrated electronic density in atomic spheres:
 Atom  Sphere_radius  Integrated_density
    1        2.00000          1.75375360
    2        2.00000          1.76559382

---OUTPUT-----------------------------------------------------------------------

 Cartesian coordinates (xcart) [bohr]
 -5.16805033408200E-02 -3.16662605586530E-17 -1.38777878078145E-17
  2.53235963098374E+00  2.58403918279980E+00  2.58403918279980E+00
 Reduced coordinates (xred)
 -4.99996983228627E-03  4.99996983228627E-03 -4.99996983228627E-03
  2.44999969832286E-01  2.55000030167713E-01  2.44999969832286E-01
 Cartesian forces (fcart) [Ha/bohr]; max,rms= 1.02061E-08 5.89251E-09 (free atoms)
 -1.02061311648301E-08 -1.65436122510606E-24  1.65436122510606E-24
  1.02061311648301E-08  1.65436122510606E-24 -1.65436122510606E-24
 Reduced forces (fred)
  5.27461178220415E-08  0.00000000000000E+00  5.27461178220415E-08
 -5.27461178220415E-08  0.00000000000000E+00 -5.27461178220415E-08
 Scale of Primitive Cell (acell) [bohr]
  7.30876796792389E+00  7.30876651603796E+00  7.30876796792389E+00
 Real space primitive translations (rprimd) [bohr]
  5.16808151592274E+00  5.16807726855228E+00  1.09704733371362E-06
  0.00000000000000E+00  5.16807836559962E+00  5.16807836559962E+00
  5.16808151592274E+00  1.09704733369078E-06  5.16807726855229E+00
 Unitary Cell Volume (ucvol) [Bohr^3]=  2.76068812570162E+02
 Angles (23,13,12)= [degrees]
  6.00000065712852E+01  5.99999587696037E+01  6.00000065712852E+01
 Lengths [Bohr]
  7.30876796792389E+00  7.30876651603796E+00  7.30876796792389E+00
 Stress tensor in cartesian coordinates (strten) [Ha/bohr^3]
  4.22161267879181E-09  0.00000000000000E+00  0.00000000000000E+00
  0.00000000000000E+00  1.51538710356156E-09  1.42090574939760E-09
  0.00000000000000E+00  1.42090574939760E-09  1.51538710312787E-09
 Total energy (etotal) [Ha]= -8.46215885551790E+00

 Difference of energy with previous step (new-old):
           Absolute (Ha)=-1.86642E-11
           Relative     =-2.20561E-12

 fconv : WARNING -
  ntime=   15 was not enough Broyd/MD steps to converge gradients:
  max grad (force/stress) = 4.2216E-07 > tolmxf= 1.0000E-08 ha/bohr (free atoms)

 ----iterations are completed or convergence reached----

 Mean square residual over all n,k,spin=   25.144E-12; max=  60.014E-10
 reduced coordinates (array xred) for    2 atoms
      -0.004999969832      0.004999969832     -0.004999969832
       0.244999969832      0.255000030168      0.244999969832
 rms dE/dt=  4.3067E-08; max dE/dt=  5.2746E-08; dE/dt below (all hartree)
    1       0.000000052746      0.000000000000      0.000000052746
    2      -0.000000052746      0.000000000000     -0.000000052746

 cartesian coordinates (angstrom) at end:
    1     -0.02734814449642    -0.00000000000000    -0.00000000000000
    2      1.34006700066998     1.36741464164118     1.36741464164119

 cartesian forces (hartree/bohr) at end:
    1     -0.00000001020613    -0.00000000000000     0.00000000000000
    2      0.00000001020613     0.00000000000000    -0.00000000000000
 frms,max,avg= 5.8925126E-09 1.0206131E-08   0.000E+00  0.000E+00  0.000E+00 h/b

 cartesian forces (eV/Angstrom) at end:
    1     -0.00000052482032    -0.00000000000000     0.00000000000000
    2      0.00000052482032     0.00000000000000    -0.00000000000000
 frms,max,avg= 3.0300515E-07 5.2482032E-07   0.000E+00  0.000E+00  0.000E+00 e/A
 length scales=  7.308767967924  7.308766516038  7.308767967924 bohr
              =  3.867633431498  3.867632663193  3.867633431498 angstroms
 prteigrs : about to open file opto_EIG
 Fermi (or HOMO) energy (hartree) =   0.14276   Average Vxc (hartree)=  -0.33842
 Eigenvalues (hartree) for nkpt=  40  k points:
 kpt#   1, nband=  6, wtk=  0.03125, kpt= -0.1250 -0.2500  0.0000 (reduced coord)
  -0.25448    0.03507    0.10567    0.10799    0.23192    0.28592
 prteigrs : prtvol=0 or 1, do not print more k-points.

 Components of total free energy (in Hartree) :

    Kinetic energy  =  3.04151558751664E+00
    Hartree energy  =  5.57138658521159E-01
    XC energy       = -3.07993328396671E+00
    Ewald energy    = -8.33856970554744E+00
    PspCore energy  =  5.41500760053835E-01
    Loc. psp. energy= -2.33203718607570E+00
    NL   psp  energy=  1.14822631398032E+00
    >>>>>>>>> Etotal= -8.46215885551790E+00

 Other information on the energy :
    Total energy(eV)= -2.30267052901796E+02 ; Band energy (Ha)=  -2.4671429762E-01

 rms coord change=  5.0000E-03   atom, delta coord (reduced):
     1       -0.004999969832      0.004999969832     -0.004999969832
     2        0.004999969832     -0.004999969832      0.004999969832

 Cartesian components of stress tensor (hartree/bohr^3)
  sigma(1 1)=  4.22161268E-09  sigma(3 2)=  1.42090575E-09
  sigma(2 2)=  1.51538710E-09  sigma(3 1)=  0.00000000E+00
  sigma(3 3)=  1.51538710E-09  sigma(2 1)=  0.00000000E+00

-Cartesian components of stress tensor (GPa)         [Pressure= -7.1124E-05 GPa]
- sigma(1 1)=  1.24204112E-04  sigma(3 2)=  4.18044834E-05
- sigma(2 2)=  4.45842203E-05  sigma(3 1)=  0.00000000E+00
- sigma(3 3)=  4.45842203E-05  sigma(2 1)=  0.00000000E+00

== END DATASET(S) ==============================================================

 -outvars: echo values of variables after computation  --------
            acell      7.3087679679E+00  7.3087665160E+00  7.3087679679E+00 Bohr
              amu      2.80855000E+01
          dilatmx      1.05000000E+00
             ecut      1.20000000E+01 Hartree
           ecutsm      5.00000000E-01 Hartree
           etotal     -8.4621588555E+00
            fcart     -1.0206131165E-08 -1.6543612251E-24  1.6543612251E-24
                       1.0206131165E-08  1.6543612251E-24 -1.6543612251E-24
-          fftalg         312
           ionmov           2
              ixc          11
              kpt     -1.25000000E-01 -2.50000000E-01  0.00000000E+00
                      -2.50000000E-01 -1.25000000E-01  0.00000000E+00
                      -1.25000000E-01  5.00000000E-01  0.00000000E+00
                      -2.50000000E-01 -3.75000000E-01  0.00000000E+00
                      -1.25000000E-01 -3.75000000E-01  1.25000000E-01
                      -3.75000000E-01 -2.50000000E-01  0.00000000E+00
                      -1.25000000E-01 -2.50000000E-01  2.50000000E-01
                       5.00000000E-01 -1.25000000E-01  0.00000000E+00
                      -3.75000000E-01 -1.25000000E-01  1.25000000E-01
                      -1.25000000E-01  2.50000000E-01  0.00000000E+00
                      -2.50000000E-01  3.75000000E-01  0.00000000E+00
                      -3.75000000E-01  5.00000000E-01  0.00000000E+00
                      -2.50000000E-01  5.00000000E-01  1.25000000E-01
                       5.00000000E-01 -3.75000000E-01  0.00000000E+00
                      -2.50000000E-01 -3.75000000E-01  2.50000000E-01
                       3.75000000E-01 -2.50000000E-01  0.00000000E+00
                       5.00000000E-01 -2.50000000E-01  1.25000000E-01
                       2.50000000E-01 -1.25000000E-01  0.00000000E+00
                       3.75000000E-01 -1.25000000E-01  1.25000000E-01
                       5.00000000E-01 -1.25000000E-01  2.50000000E-01
                      -1.25000000E-01  0.00000000E+00  0.00000000E+00
                       3.75000000E-01 -3.75000000E-01  1.25000000E-01
                       2.50000000E-01 -2.50000000E-01  1.25000000E-01
                       3.75000000E-01 -2.50000000E-01  2.50000000E-01
                       0.00000000E+00 -1.25000000E-01  0.00000000E+00
                       1.25000000E-01 -1.25000000E-01  1.25000000E-01
                       2.50000000E-01 -1.25000000E-01  2.50000000E-01
                       3.75000000E-01 -1.25000000E-01  3.75000000E-01
                      -3.75000000E-01  0.00000000E+00  0.00000000E+00
                      -2.50000000E-01  0.00000000E+00  1.25000000E-01
                       2.50000000E-01  5.00000000E-01  1.25000000E-01
                       0.00000000E+00 -3.75000000E-01  0.00000000E+00
                       1.25000000E-01 -3.75000000E-01  1.25000000E-01
                       2.50000000E-01 -3.75000000E-01  2.50000000E-01
                      -2.50000000E-01 -3.75000000E-01 -2.50000000E-01
                       5.00000000E-01  0.00000000E+00  1.25000000E-01
                      -3.75000000E-01  0.00000000E+00  2.50000000E-01
                       2.50000000E-01  0.00000000E+00  1.25000000E-01
                       3.75000000E-01  0.00000000E+00  2.50000000E-01
                       5.00000000E-01  0.00000000E+00  3.75000000E-01
         kptrlatt        4   -4    4     -4    4    4     -4   -4    4
          kptrlen      4.53534272E+01
P           mkmem           7
            natom           2
            nband           6
            ngfft          30      30      30
             nkpt          40
             nsym           8
            ntime          15
           ntypat           1
              occ      2.000000  2.000000  2.000000  2.000000  0.000000  0.000000
          optcell           2
            rprim      7.0710707175E-01  7.0710649062E-01  1.5010017263E-07
                       0.0000000000E+00  7.0710678119E-01  7.0710678119E-01
                       7.0710707175E-01  1.5010017263E-07  7.0710649062E-01
           shiftk      5.00000000E-01  5.00000000E-01  5.00000000E-01
          spgroup          74
           strten      4.2216126788E-09  1.5153871036E-09  1.5153871031E-09
                       1.4209057494E-09  0.0000000000E+00  0.0000000000E+00
           symrel      1  0  0   0  1  0   0  0  1      -1  0  0   0 -1  0   0  0 -1
                       0 -1  1   0 -1  0   1 -1  0       0  1 -1   0  1  0  -1  1  0
                       0  0  1   0  1  0   1  0  0       0  0 -1   0 -1  0  -1  0  0
                       1 -1  0   0 -1  0   0 -1  1      -1  1  0   0  1  0   0  1 -1
            tnons      0.0000000  0.0000000  0.0000000     0.2400000  0.2600000  0.2400000
                       0.0000000  0.0000000  0.0000000     0.2400000  0.2600000  0.2400000
                       0.0000000  0.0000000  0.0000000     0.2400000  0.2600000  0.2400000
                       0.0000000  0.0000000  0.0000000     0.2400000  0.2600000  0.2400000
           tolmxf      1.00000000E-08
           tolvrs      1.00000000E-10
            typat      1  1
              wtk        0.03125    0.03125    0.03125    0.03125    0.03125    0.03125
                         0.03125    0.03125    0.03125    0.03125    0.03125    0.03125
                         0.03125    0.03125    0.03125    0.03125    0.03125    0.03125
                         0.03125    0.03125    0.01563    0.03125    0.03125    0.03125
                         0.01563    0.01563    0.01563    0.01563    0.01563    0.01563
                         0.03125    0.01563    0.01563    0.01563    0.01563    0.01563
                         0.01563    0.01563    0.01563    0.01563
           xangst     -2.7348144496E-02 -1.6757063369E-17 -7.3438090135E-18
                       1.3400670007E+00  1.3674146416E+00  1.3674146416E+00
            xcart     -5.1680503341E-02 -3.1666260559E-17 -1.3877787808E-17
                       2.5323596310E+00  2.5840391828E+00  2.5840391828E+00
             xred     -4.9999698323E-03  4.9999698323E-03 -4.9999698323E-03
                       2.4499996983E-01  2.5500003017E-01  2.4499996983E-01
            znucl       14.00000

- Timing analysis has been suppressed with timopt=0

 Suggested references for the acknowledgment of ABINIT usage.

 Calculation completed.
.Delivered  13 WARNINGs and  16 COMMENTs to log file.

External calculated distance:
distance  4.475687702730881