.Version 8.11.13 of ABINIT

 ABINIT is a project of the Universite Catholique de Louvain,
 Corning Inc. and other collaborators, see ~abinit/doc/developers/contributors.txt .
 acknowledgments of the ABINIT effort.

.Starting date : Fri 10 Jan 2020.
- ( at 12h23 )

 === Build Information ===
  Version       : 8.11.13
  Build target  : x86_64_linux_intel14.0
  Build date    : 20191206

 === Optimizations ===
  Debug level        : basic
  Optimization level : standard
  Architecture       : intel_xeon

 === Multicore ===
  Parallel build : yes
  Parallel I/O   : yes
  openMP support : no
  GPU support    : no

 === Connectors / Fallbacks ===
  Connectors on : yes
  Fallbacks on  : yes
  FFT flavor    : fftw3
  LINALG flavor : mkl
  TIMER flavor  : abinit
  TRIO flavor   : netcdf

 === Experimental features ===
  Exports             : no
  GW double-precision : yes

 Default optimizations:
   -O3

 Optimizations for 43_ptgroups:
   -O0

 CPP options activated during the build:

                  CC_INTEL                   CXX_GNU                  FC_INTEL

 HAVE_FC_ALLOCATABLE_DT...             HAVE_FC_ASYNC  HAVE_FC_COMMAND_ARGUMENT

        HAVE_FC_CONTIGUOUS           HAVE_FC_CPUTIME             HAVE_FC_ETIME

              HAVE_FC_EXIT             HAVE_FC_FLUSH             HAVE_FC_GAMMA

            HAVE_FC_GETENV            HAVE_FC_GETPID   HAVE_FC_IEEE_ARITHMETIC

   HAVE_FC_IEEE_EXCEPTIONS             HAVE_FC_IOMSG     HAVE_FC_ISO_C_BINDING

  HAVE_FC_ISO_FORTRAN_2008        HAVE_FC_LONG_LINES        HAVE_FC_MOVE_ALLOC

  HAVE_FC_ON_THE_FLY_SHAPE           HAVE_FC_PRIVATE         HAVE_FC_PROTECTED

           HAVE_FC_SHIFTLR         HAVE_FC_STREAM_IO            HAVE_FC_SYSTEM

                  HAVE_FFT            HAVE_FFT_FFTW3              HAVE_FFT_MPI

           HAVE_FFT_SERIAL               HAVE_GW_DPC        HAVE_LIBPAW_ABINIT

         HAVE_LINALG_AXPBY        HAVE_LINALG_GEMM3M  HAVE_LINALG_MKL_IMATCOPY

   HAVE_LINALG_MKL_OMATADD  HAVE_LINALG_MKL_OMATCOPY   HAVE_LINALG_MKL_THREADS

        HAVE_LINALG_SERIAL                  HAVE_MPI                 HAVE_MPI2

       HAVE_MPI_IALLREDUCE        HAVE_MPI_IALLTOALL       HAVE_MPI_IALLTOALLV

           HAVE_MPI_IBCAST         HAVE_MPI_IGATHERV        HAVE_MPI_INTEGER16

               HAVE_MPI_IO HAVE_MPI_TYPE_CREATE_S...               HAVE_NETCDF

           HAVE_NETCDF_MPI                HAVE_NUMPY             HAVE_OS_LINUX

         HAVE_TIMER_ABINIT                  HAVE_XML              USE_MACROAVE

- input  file    -> opt.in
- output file    -> opt.out
- root for input  files -> opti
- root for output files -> opto

-instrng: 56 lines of input have been read from file opt.in

 Please give name of formatted atomic psp file
 For atom type 1, psp file is /CECI/home/ucl/naps/jovbever/.PsP/Si/Si.psp8
  read the values zionpsp=  4.0 , pspcod=   8 , lmax=   2

 inpspheads: deduce mpsang = 3, n1xccc = 2501.

invars1m : enter jdtset= 0

 symlatt: the Bravais lattice is cF (face-centered cubic)
  xred   is defined in input file
 ingeo: takes atomic coordinates from input array xred

 symlatt: the Bravais lattice is cF (face-centered cubic)

 symlatt: the Bravais lattice is cF (face-centered cubic)

--- !COMMENT
src_file: m_symfind.F90
src_line: 931
message: |
    The Bravais lattice determined only from the primitive
    vectors, bravais(1)=  7, is more symmetric
    than the real one, iholohedry=  3, obtained by taking into
    account the atomic positions. Start deforming the primitive vector set.
...

 symlatt: the Bravais lattice is oI (body-centered orthorhombic)
 symspgr: spgroup=  74  Im m a   (=D2h^28)
 For input ecut=  1.102500E+01 best grid ngfft=      24      24      24
       max ecut=  1.105508E+01

 ==== FFT mesh ====
  FFT mesh divisions ........................    24   24   24
  Augmented FFT divisions ...................    25   25   24
  FFT algorithm .............................   312
  FFT cache size ............................    16
 getmpw: optimal value of mpw= 646

 Symmetries : space group Im m a (# 74); Bravais oI (body-center ortho.)

 getdim_nloc : deduce lmnmax  =  18, lnmax  =   6,
                      lmnmaxso=  18, lnmaxso=   6.
     intxc =       0    ionmov =       2      iscf =       7    lmnmax =       6
     lnmax =       6     mgfft =      24  mpssoang =       3    mqgrid =    3001
     natom =       2  nloc_mem =       1    nspden =       1   nspinor =       1
    nsppol =       1      nsym =       8    n1xccc =    2501    ntypat =       1
    occopt =       1   xclevel =       2
-    mband =           6        mffmem =           1         mkmem =          21
       mpw =         646          nfft =       13824          nkpt =         126
  Rough estimation (10% accuracy) of disk space for files :

 The job will continue.
------------- Echo of variables that govern the present computation ------------
-
- outvars: echo of selected default values
-   iomode0 =  0 , fftalg0 =312 , wfoptalg0 =  0
-
- outvars: echo of global parameters not present in the input file
-  max_nthreads =    0
-
 -outvars: echo values of preprocessed input variables --------

 These variables are accessible in NetCDF format (opto_OUT.nc)

            acell      1.1338356797E+01  1.1338356797E+01  1.1338356797E+01 Bohr
              amu      2.80855000E+01
          dilatmx      1.05000000E+00
             ecut      1.00000000E+01 Hartree
           ecutsm      5.00000000E-01 Hartree
-          fftalg         312
           ionmov           2
              ixc          11
              kpt     -8.33333333E-02 -1.66666667E-01  0.00000000E+00
                      -1.66666667E-01 -8.33333333E-02  0.00000000E+00
                      -8.33333333E-02 -3.33333333E-01  0.00000000E+00
                      -1.66666667E-01 -2.50000000E-01  0.00000000E+00
                      -8.33333333E-02 -2.50000000E-01  8.33333333E-02
                      -2.50000000E-01 -1.66666667E-01  0.00000000E+00
                      -8.33333333E-02 -1.66666667E-01  1.66666667E-01
                      -3.33333333E-01 -8.33333333E-02  0.00000000E+00
                      -2.50000000E-01 -8.33333333E-02  8.33333333E-02
                      -8.33333333E-02  5.00000000E-01  0.00000000E+00
                      -1.66666667E-01 -4.16666667E-01  0.00000000E+00
                      -8.33333333E-02 -4.16666667E-01  8.33333333E-02
                      -2.50000000E-01 -3.33333333E-01  0.00000000E+00
                      -1.66666667E-01 -3.33333333E-01  8.33333333E-02
                      -8.33333333E-02 -3.33333333E-01  1.66666667E-01
                      -3.33333333E-01 -2.50000000E-01  0.00000000E+00
                      -1.66666667E-01 -2.50000000E-01  1.66666667E-01
                      -8.33333333E-02 -2.50000000E-01  2.50000000E-01
                      -4.16666667E-01 -1.66666667E-01  0.00000000E+00
                      -3.33333333E-01 -1.66666667E-01  8.33333333E-02
                      -8.33333333E-02 -1.66666667E-01  3.33333333E-01
                       5.00000000E-01 -8.33333333E-02  0.00000000E+00
                      -4.16666667E-01 -8.33333333E-02  8.33333333E-02
                      -3.33333333E-01 -8.33333333E-02  1.66666667E-01
                      -8.33333333E-02  3.33333333E-01  0.00000000E+00
                      -1.66666667E-01  4.16666667E-01  0.00000000E+00
                      -2.50000000E-01  5.00000000E-01  0.00000000E+00
                      -1.66666667E-01  5.00000000E-01  8.33333333E-02
                      -3.33333333E-01 -4.16666667E-01  0.00000000E+00
                      -2.50000000E-01 -4.16666667E-01  8.33333333E-02
                      -1.66666667E-01 -4.16666667E-01  1.66666667E-01
                      -8.33333333E-02 -4.16666667E-01  2.50000000E-01
                      -4.16666667E-01 -3.33333333E-01  0.00000000E+00
                      -2.50000000E-01 -3.33333333E-01  1.66666667E-01
                      -1.66666667E-01 -3.33333333E-01  2.50000000E-01
                      -8.33333333E-02 -3.33333333E-01  3.33333333E-01
                       5.00000000E-01 -2.50000000E-01  0.00000000E+00
                      -4.16666667E-01 -2.50000000E-01  8.33333333E-02
                      -1.66666667E-01 -2.50000000E-01  3.33333333E-01
                       4.16666667E-01 -1.66666667E-01  0.00000000E+00
                       5.00000000E-01 -1.66666667E-01  8.33333333E-02
                      -4.16666667E-01 -1.66666667E-01  1.66666667E-01
                       3.33333333E-01 -8.33333333E-02  0.00000000E+00
                       4.16666667E-01 -8.33333333E-02  8.33333333E-02
                       5.00000000E-01 -8.33333333E-02  1.66666667E-01
                      -4.16666667E-01 -8.33333333E-02  2.50000000E-01
                      -8.33333333E-02  1.66666667E-01  0.00000000E+00
                      -1.66666667E-01  2.50000000E-01  0.00000000E+00
                      -2.50000000E-01  3.33333333E-01  0.00000000E+00
                      -3.33333333E-01  4.16666667E-01  0.00000000E+00
                       outvar_i_n : Printing only first  50 k-points.
         kptrlatt        6   -6    6     -6    6    6     -6   -6    6
          kptrlen      6.80301408E+01
P           mkmem          21
            natom           2
            nband           6
            ngfft          24      24      24
             nkpt         126
             nsym           8
            ntime          15
           ntypat           1
              occ      2.000000  2.000000  2.000000  2.000000  0.000000  0.000000
          optcell           2
            rprim      5.0000000000E-01  5.0000000000E-01  0.0000000000E+00
                       0.0000000000E+00  5.0000000000E-01  5.0000000000E-01
                       5.0000000000E-01  0.0000000000E+00  5.0000000000E-01
           shiftk      5.00000000E-01  5.00000000E-01  5.00000000E-01
          spgroup          74
           symrel      1  0  0   0  1  0   0  0  1      -1  0  0   0 -1  0   0  0 -1
                       0 -1  1   0 -1  0   1 -1  0       0  1 -1   0  1  0  -1  1  0
                       0  0  1   0  1  0   1  0  0       0  0 -1   0 -1  0  -1  0  0
                       1 -1  0   0 -1  0   0 -1  1      -1  1  0   0  1  0   0  1 -1
            tnons      0.0000000  0.0000000  0.0000000     0.2400000  0.2600000  0.2400000
                       0.0000000  0.0000000  0.0000000     0.2400000  0.2600000  0.2400000
                       0.0000000  0.0000000  0.0000000     0.2400000  0.2600000  0.2400000
                       0.0000000  0.0000000  0.0000000     0.2400000  0.2600000  0.2400000
           tolmxf      1.00000000E-08
           tolvrs      1.00000000E-10
            typat      1  1
              wtk        0.00926    0.00926    0.00926    0.00926    0.00926    0.00926
                         0.00926    0.00926    0.00926    0.00926    0.00926    0.00926
                         0.00926    0.00926    0.00926    0.00926    0.00926    0.00926
                         0.00926    0.00926    0.00926    0.00926    0.00926    0.00926
                         0.00926    0.00926    0.00926    0.00926    0.00926    0.00926
[...]
  -0.2500  0.3333  0.0000    1  3.73265E-11 kpt; spin; max resid(k); each band:
  1.32E-16 3.12E-16 8.61E-17 1.93E-16 4.93E-16 3.73E-11
  -0.3333  0.4167  0.0000    1  1.10737E-15 kpt; spin; max resid(k); each band:
  1.35E-16 3.69E-16 6.01E-16 6.54E-17 3.36E-16 1.11E-15
 outwf : prtvol=0 or 1, do not print more k-points.

   outwf: writing wavefunctions to: opto_WFK with iomode: IO_MODE_FORTRAN_MASTER
 prteigrs : about to open file opto_EIG
 Fermi (or HOMO) energy (hartree) =   0.14789   Average Vxc (hartree)=  -0.33831
 Eigenvalues (hartree) for nkpt= 126  k points:
 kpt#   1, nband=  6, wtk=  0.00926, kpt= -0.0833 -0.1667  0.0000 (reduced coord)
  -0.26927    0.08204    0.12444    0.13100    0.23764    0.26873
 kpt#   2, nband=  6, wtk=  0.00926, kpt= -0.1667 -0.0833  0.0000 (reduced coord)
  -0.26927    0.08204    0.12443    0.13100    0.23764    0.26872
 kpt#   3, nband=  6, wtk=  0.00926, kpt= -0.0833 -0.3333  0.0000 (reduced coord)
  -0.23619   -0.02419    0.10537    0.10635    0.23504    0.27352
 kpt#   4, nband=  6, wtk=  0.00926, kpt= -0.1667 -0.2500  0.0000 (reduced coord)
  -0.25204    0.03799    0.09722    0.09791    0.21669    0.29420
 kpt#   5, nband=  6, wtk=  0.00926, kpt= -0.0833 -0.2500  0.0833 (reduced coord)
  -0.24390    0.00783    0.07481    0.11735    0.24867    0.27937
 kpt#   6, nband=  6, wtk=  0.00926, kpt= -0.2500 -0.1667  0.0000 (reduced coord)
  -0.25204    0.03799    0.09722    0.09791    0.21669    0.29420
 kpt#   7, nband=  6, wtk=  0.00926, kpt= -0.0833 -0.1667  0.1667 (reduced coord)
  -0.24390    0.00783    0.07481    0.11735    0.24867    0.27937
 kpt#   8, nband=  6, wtk=  0.00926, kpt= -0.3333 -0.0833  0.0000 (reduced coord)
  -0.23619   -0.02419    0.10537    0.10635    0.23504    0.27352
 kpt#   9, nband=  6, wtk=  0.00926, kpt= -0.2500 -0.0833  0.0833 (reduced coord)
  -0.24390    0.00783    0.07481    0.11735    0.24867    0.27937
 kpt#  10, nband=  6, wtk=  0.00926, kpt= -0.0833  0.5000  0.0000 (reduced coord)
  -0.19630   -0.09607    0.08822    0.10311    0.22577    0.27360
 kpt#  11, nband=  6, wtk=  0.00926, kpt= -0.1667 -0.4167  0.0000 (reduced coord)
  -0.21266   -0.05358    0.06479    0.08687    0.22706    0.30691
 kpt#  12, nband=  6, wtk=  0.00926, kpt= -0.0833 -0.4167  0.0833 (reduced coord)
  -0.20098   -0.07817    0.06008    0.09672    0.24680    0.27121
 kpt#  13, nband=  6, wtk=  0.00926, kpt= -0.2500 -0.3333  0.0000 (reduced coord)
  -0.22658   -0.00958    0.06803    0.07588    0.19845    0.25600
 kpt#  14, nband=  6, wtk=  0.00926, kpt= -0.1667 -0.3333  0.0833 (reduced coord)
  -0.21918   -0.02888    0.04958    0.08384    0.23128    0.29064
 kpt#  15, nband=  6, wtk=  0.00926, kpt= -0.0833 -0.3333  0.1667 (reduced coord)
  -0.20497   -0.05388    0.02633    0.09321    0.26164    0.28513
 kpt#  16, nband=  6, wtk=  0.00926, kpt= -0.3333 -0.2500  0.0000 (reduced coord)
  -0.22658   -0.00958    0.06803    0.07588    0.19845    0.25600
 kpt#  17, nband=  6, wtk=  0.00926, kpt= -0.1667 -0.2500  0.1667 (reduced coord)
  -0.21917   -0.02888    0.04958    0.08384    0.23128    0.29064
 kpt#  18, nband=  6, wtk=  0.00926, kpt= -0.0833 -0.2500  0.2500 (reduced coord)
  -0.20497   -0.05388    0.02633    0.09321    0.26164    0.28513
 kpt#  19, nband=  6, wtk=  0.00926, kpt= -0.4167 -0.1667  0.0000 (reduced coord)
  -0.21265   -0.05358    0.06479    0.08687    0.22706    0.30690
 kpt#  20, nband=  6, wtk=  0.00926, kpt= -0.3333 -0.1667  0.0833 (reduced coord)
  -0.21917   -0.02888    0.04958    0.08384    0.23128    0.29064
 kpt#  21, nband=  6, wtk=  0.00926, kpt= -0.0833 -0.1667  0.3333 (reduced coord)
  -0.20098   -0.07817    0.06008    0.09672    0.24680    0.27121
 kpt#  22, nband=  6, wtk=  0.00926, kpt=  0.5000 -0.0833  0.0000 (reduced coord)
  -0.19630   -0.09607    0.08822    0.10310    0.22576    0.27359
 kpt#  23, nband=  6, wtk=  0.00926, kpt= -0.4167 -0.0833  0.0833 (reduced coord)
  -0.20098   -0.07817    0.06008    0.09672    0.24680    0.27121
 kpt#  24, nband=  6, wtk=  0.00926, kpt= -0.3333 -0.0833  0.1667 (reduced coord)
  -0.20497   -0.05388    0.02633    0.09321    0.26164    0.28513
 kpt#  25, nband=  6, wtk=  0.00926, kpt= -0.0833  0.3333  0.0000 (reduced coord)
  -0.22136   -0.05483    0.08591    0.11689    0.23123    0.28369
 kpt#  26, nband=  6, wtk=  0.00926, kpt= -0.1667  0.4167  0.0000 (reduced coord)
  -0.18777   -0.09273    0.04471    0.09535    0.23302    0.30101
 kpt#  27, nband=  6, wtk=  0.00926, kpt= -0.2500  0.5000  0.0000 (reduced coord)
  -0.18355   -0.07974    0.02553    0.07333    0.20992    0.31650
 kpt#  28, nband=  6, wtk=  0.00926, kpt= -0.1667  0.5000  0.0833 (reduced coord)
  -0.17904   -0.09191    0.02761    0.07566    0.24040    0.29691
 kpt#  29, nband=  6, wtk=  0.00926, kpt= -0.3333 -0.4167  0.0000 (reduced coord)
  -0.19344   -0.05920    0.04835    0.06054    0.18699    0.22289
 kpt#  30, nband=  6, wtk=  0.00926, kpt= -0.2500 -0.4167  0.0833 (reduced coord)
  -0.18739   -0.06724    0.02958    0.05828    0.21728    0.26415
 kpt#  31, nband=  6, wtk=  0.00926, kpt= -0.1667 -0.4167  0.1667 (reduced coord)
  -0.17653   -0.08120    0.01198    0.05828    0.27171    0.29100
 kpt#  32, nband=  6, wtk=  0.00926, kpt= -0.0833 -0.4167  0.2500 (reduced coord)
  -0.16385   -0.09531    0.00057    0.06567    0.23216    0.33822
 kpt#  33, nband=  6, wtk=  0.00926, kpt= -0.4167 -0.3333  0.0000 (reduced coord)
  -0.19344   -0.05920    0.04835    0.06054    0.18699    0.22289
 kpt#  34, nband=  6, wtk=  0.00926, kpt= -0.2500 -0.3333  0.1667 (reduced coord)
  -0.18739   -0.06724    0.02958    0.05828    0.21728    0.26415
 kpt#  35, nband=  6, wtk=  0.00926, kpt= -0.1667 -0.3333  0.2500 (reduced coord)
  -0.17653   -0.08120    0.01198    0.05828    0.27171    0.29100
 kpt#  36, nband=  6, wtk=  0.00926, kpt= -0.0833 -0.3333  0.3333 (reduced coord)
  -0.16385   -0.09531    0.00057    0.06567    0.23216    0.33823
 kpt#  37, nband=  6, wtk=  0.00926, kpt=  0.5000 -0.2500  0.0000 (reduced coord)
  -0.18355   -0.07975    0.02553    0.07333    0.20992    0.31650
 kpt#  38, nband=  6, wtk=  0.00926, kpt= -0.4167 -0.2500  0.0833 (reduced coord)
  -0.18739   -0.06724    0.02958    0.05828    0.21728    0.26415
 kpt#  39, nband=  6, wtk=  0.00926, kpt= -0.1667 -0.2500  0.3333 (reduced coord)
  -0.17904   -0.09191    0.02761    0.07566    0.24040    0.29691
 kpt#  40, nband=  6, wtk=  0.00926, kpt=  0.4167 -0.1667  0.0000 (reduced coord)
  -0.18777   -0.09273    0.04471    0.09535    0.23302    0.30101
 kpt#  41, nband=  6, wtk=  0.00926, kpt=  0.5000 -0.1667  0.0833 (reduced coord)
  -0.17904   -0.09191    0.02761    0.07566    0.24039    0.29691
 kpt#  42, nband=  6, wtk=  0.00926, kpt= -0.4167 -0.1667  0.1667 (reduced coord)
  -0.17653   -0.08120    0.01198    0.05828    0.27171    0.29099
 kpt#  43, nband=  6, wtk=  0.00926, kpt=  0.3333 -0.0833  0.0000 (reduced coord)
  -0.22136   -0.05483    0.08591    0.11689    0.23122    0.28369
 kpt#  44, nband=  6, wtk=  0.00926, kpt=  0.4167 -0.0833  0.0833 (reduced coord)
  -0.20098   -0.07817    0.06008    0.09672    0.24680    0.27121
 kpt#  45, nband=  6, wtk=  0.00926, kpt=  0.5000 -0.0833  0.1667 (reduced coord)
  -0.17904   -0.09191    0.02761    0.07566    0.24039    0.29691
 kpt#  46, nband=  6, wtk=  0.00926, kpt= -0.4167 -0.0833  0.2500 (reduced coord)
  -0.16384   -0.09531    0.00057    0.06567    0.23216    0.33822
 kpt#  47, nband=  6, wtk=  0.00926, kpt= -0.0833  0.1667  0.0000 (reduced coord)
  -0.26075    0.04527    0.10299    0.14013    0.24998    0.26881
 kpt#  48, nband=  6, wtk=  0.00926, kpt= -0.1667  0.2500  0.0000 (reduced coord)
  -0.22795   -0.02443    0.04827    0.11926    0.25344    0.29920
 kpt#  49, nband=  6, wtk=  0.00926, kpt= -0.2500  0.3333  0.0000 (reduced coord)
  -0.18547   -0.07686    0.00833    0.09077    0.22775    0.34728
 kpt#  50, nband=  6, wtk=  0.00926, kpt= -0.3333  0.4167  0.0000 (reduced coord)
  -0.15417   -0.10445    0.00166    0.06627    0.19996    0.30600
 prteigrs : prtvol=0 or 1, do not print more k-points.

 Total charge density [el/Bohr^3]
      Maximum=    8.3486E-02  at reduced coord.    0.1250    0.1667    0.5417
 Next maximum=    8.3486E-02  at reduced coord.    0.5417    0.1667    0.1250
      Minimum=    1.7952E-03  at reduced coord.    0.0000    0.0000    0.0000
 Next minimum=    1.7953E-03  at reduced coord.    0.2500    0.2500    0.2500
   Integrated=    8.0000E+00

 Cartesian components of stress tensor (hartree/bohr^3)
  sigma(1 1)=  1.68219087E-08  sigma(3 2)=  2.71147595E-08
  sigma(2 2)=  2.61371600E-08  sigma(3 1)=  0.00000000E+00
  sigma(3 3)=  2.61371600E-08  sigma(2 1)=  0.00000000E+00

-Cartesian components of stress tensor (GPa)         [Pressure= -6.7763E-04 GPa]
- sigma(1 1)=  4.94917558E-04  sigma(3 2)=  7.97743632E-04
- sigma(2 2)=  7.68981667E-04  sigma(3 1)=  0.00000000E+00
- sigma(3 3)=  7.68981667E-04  sigma(2 1)=  0.00000000E+00

== END DATASET(S) ==============================================================

 -outvars: echo values of variables after computation  --------

 These variables are accessible in NetCDF format (opto_OUT.nc)

            acell      7.3112723629E+00  7.3113126204E+00  7.3112723629E+00 Bohr
              amu      2.80855000E+01
          dilatmx      1.05000000E+00
             ecut      1.00000000E+01 Hartree
           ecutsm      5.00000000E-01 Hartree
           etotal     -8.4614793154E+00
            fcart      1.3424910725E-06  5.2939559203E-23 -5.2939559203E-23
                      -1.3424910725E-06 -5.2939559203E-23  5.2939559203E-23
-          fftalg         312
           ionmov           2
              ixc          11
              kpt     -8.33333333E-02 -1.66666667E-01  0.00000000E+00
                      -1.66666667E-01 -8.33333333E-02  0.00000000E+00
                      -8.33333333E-02 -3.33333333E-01  0.00000000E+00
                      -1.66666667E-01 -2.50000000E-01  0.00000000E+00
                      -8.33333333E-02 -2.50000000E-01  8.33333333E-02
                      -2.50000000E-01 -1.66666667E-01  0.00000000E+00
                      -8.33333333E-02 -1.66666667E-01  1.66666667E-01
                      -3.33333333E-01 -8.33333333E-02  0.00000000E+00
                      -2.50000000E-01 -8.33333333E-02  8.33333333E-02
                      -8.33333333E-02  5.00000000E-01  0.00000000E+00
                      -1.66666667E-01 -4.16666667E-01  0.00000000E+00
                      -8.33333333E-02 -4.16666667E-01  8.33333333E-02
                      -2.50000000E-01 -3.33333333E-01  0.00000000E+00
                      -1.66666667E-01 -3.33333333E-01  8.33333333E-02
                      -8.33333333E-02 -3.33333333E-01  1.66666667E-01
                      -3.33333333E-01 -2.50000000E-01  0.00000000E+00
                      -1.66666667E-01 -2.50000000E-01  1.66666667E-01
                      -8.33333333E-02 -2.50000000E-01  2.50000000E-01
                      -4.16666667E-01 -1.66666667E-01  0.00000000E+00
                      -3.33333333E-01 -1.66666667E-01  8.33333333E-02
                      -8.33333333E-02 -1.66666667E-01  3.33333333E-01
                       5.00000000E-01 -8.33333333E-02  0.00000000E+00
                      -4.16666667E-01 -8.33333333E-02  8.33333333E-02
                      -3.33333333E-01 -8.33333333E-02  1.66666667E-01
                      -8.33333333E-02  3.33333333E-01  0.00000000E+00
                      -1.66666667E-01  4.16666667E-01  0.00000000E+00
                      -2.50000000E-01  5.00000000E-01  0.00000000E+00
                      -1.66666667E-01  5.00000000E-01  8.33333333E-02
                      -3.33333333E-01 -4.16666667E-01  0.00000000E+00
                      -2.50000000E-01 -4.16666667E-01  8.33333333E-02
                      -1.66666667E-01 -4.16666667E-01  1.66666667E-01
                      -8.33333333E-02 -4.16666667E-01  2.50000000E-01
                      -4.16666667E-01 -3.33333333E-01  0.00000000E+00
                      -2.50000000E-01 -3.33333333E-01  1.66666667E-01
                      -1.66666667E-01 -3.33333333E-01  2.50000000E-01
                      -8.33333333E-02 -3.33333333E-01  3.33333333E-01
                       5.00000000E-01 -2.50000000E-01  0.00000000E+00
                      -4.16666667E-01 -2.50000000E-01  8.33333333E-02
                      -1.66666667E-01 -2.50000000E-01  3.33333333E-01
                       4.16666667E-01 -1.66666667E-01  0.00000000E+00
                       5.00000000E-01 -1.66666667E-01  8.33333333E-02
                      -4.16666667E-01 -1.66666667E-01  1.66666667E-01
                       3.33333333E-01 -8.33333333E-02  0.00000000E+00
                       4.16666667E-01 -8.33333333E-02  8.33333333E-02
                       5.00000000E-01 -8.33333333E-02  1.66666667E-01
                      -4.16666667E-01 -8.33333333E-02  2.50000000E-01
                      -8.33333333E-02  1.66666667E-01  0.00000000E+00
                      -1.66666667E-01  2.50000000E-01  0.00000000E+00
                      -2.50000000E-01  3.33333333E-01  0.00000000E+00
                      -3.33333333E-01  4.16666667E-01  0.00000000E+00
                       outvar_i_n : Printing only first  50 k-points.
         kptrlatt        6   -6    6     -6    6    6     -6   -6    6
          kptrlen      6.80301408E+01
P           mkmem          21
            natom           2
            nband           6
            ngfft          24      24      24
             nkpt         126
             nsym           8
            ntime          15
           ntypat           1
              occ      2.000000  2.000000  2.000000  2.000000  0.000000  0.000000
          optcell           2
            rprim      7.0710576871E-01  7.0710779366E-01  2.8810161290E-06
                       0.0000000000E+00  7.0710678119E-01  7.0710678119E-01
                       7.0710576871E-01  2.8810161290E-06  7.0710779366E-01
           shiftk      5.00000000E-01  5.00000000E-01  5.00000000E-01
          spgroup          74
           strten      1.6821908699E-08  2.6137160017E-08  2.6137160018E-08
                       2.7114759483E-08  0.0000000000E+00  0.0000000000E+00
           symrel      1  0  0   0  1  0   0  0  1      -1  0  0   0 -1  0   0  0 -1
                       0 -1  1   0 -1  0   1 -1  0       0  1 -1   0  1  0  -1  1  0
                       0  0  1   0  1  0   1  0  0       0  0 -1   0 -1  0  -1  0  0
                       1 -1  0   0 -1  0   0 -1  1      -1  1  0   0  1  0   0  1 -1
            tnons      0.0000000  0.0000000  0.0000000     0.2400000  0.2600000  0.2400000
                       0.0000000  0.0000000  0.0000000     0.2400000  0.2600000  0.2400000
                       0.0000000  0.0000000  0.0000000     0.2400000  0.2600000  0.2400000
                       0.0000000  0.0000000  0.0000000     0.2400000  0.2600000  0.2400000
           tolmxf      1.00000000E-08
           tolvrs      1.00000000E-10
            typat      1  1
              wtk        0.00926    0.00926    0.00926    0.00926    0.00926    0.00926
                         0.00926    0.00926    0.00926    0.00926    0.00926    0.00926
                         0.00926    0.00926    0.00926    0.00926    0.00926    0.00926
                         0.00926    0.00926    0.00926    0.00926    0.00926    0.00926
                         0.00926    0.00926    0.00926    0.00926    0.00926    0.00926
                         0.00926    0.00926    0.00926    0.00926    0.00926    0.00926
                         0.00926    0.00926    0.00926    0.00926    0.00926    0.00926
                         0.00926    0.00926    0.00926    0.00926    0.00926    0.00926
                         0.00926    0.00926
                       outvars : Printing only first  50 k-points.
           xangst     -2.7357448000E-02  1.9163795181E-17  1.8359522534E-17
                       1.3405236956E+00  1.3678909984E+00  1.3678909984E+00
            xcart     -5.1698084414E-02  3.6214324560E-17  3.4694469520E-17
                       2.5332226593E+00  2.5849393666E+00  2.5849393666E+00
             xred     -4.9999667079E-03  4.9999667079E-03 -4.9999667079E-03
                       2.4499996671E-01  2.5500003329E-01  2.4499996671E-01
            znucl       14.00000

 Suggested references for the acknowledgment of ABINIT usage.

 Calculation completed.
.Delivered  13 WARNINGs and  13 COMMENTs to log file.

--- !FinalSummary
program: abinit
version: 8.11.13
start_datetime: Fri Jan 10 12:23:55 2020
end_datetime: Fri Jan 10 12:25:27 2020
overall_cpu_time:         452.3
overall_wall_time:         546.7
exit_requested_by_user: no
timelimit: 0
pseudos:
    Si  : 45c393525680abc7b25445b8ec62bf83
usepaw: 0
mpi_procs: 6
omp_threads: 1
num_warnings: 13
num_comments: 13
...