.Version 8.11.13 of ABINIT

 ABINIT is a project of the Universite Catholique de Louvain,
 Corning Inc. and other collaborators, see ~abinit/doc/developers/contributors.txt .
 acknowledgments of the ABINIT effort.

.Starting date : Thu  5 Dec 2019.
- ( at 17h31 )

 === Build Information ===
  Version       : 8.11.13
  Build target  : x86_64_linux_intel13.0
  Build date    : 20191205

 === Optimizations ===
  Debug level        : basic
  Optimization level : standard
  Architecture       : amd_opteron

 === Multicore ===
  Parallel build : yes
  Parallel I/O   : yes
  openMP support : no
  GPU support    : no

 === Connectors / Fallbacks ===
  Connectors on : yes
  Fallbacks on  : yes
  FFT flavor    : dfti
  LINALG flavor : mkl
  TIMER flavor  : abinit
  TRIO flavor   : netcdf-fallback

 === Experimental features ===
  Exports             : no
  GW double-precision : yes

 Default optimizations:
   -O2

 Optimizations for 43_ptgroups:
   -O0

 CPP options activated during the build:

                  CC_INTEL                 CXX_INTEL                  FC_INTEL

 HAVE_FC_ALLOCATABLE_DT...             HAVE_FC_ASYNC  HAVE_FC_COMMAND_ARGUMENT

        HAVE_FC_CONTIGUOUS           HAVE_FC_CPUTIME              HAVE_FC_EXIT

             HAVE_FC_GAMMA   HAVE_FC_IEEE_ARITHMETIC   HAVE_FC_IEEE_EXCEPTIONS

             HAVE_FC_IOMSG     HAVE_FC_ISO_C_BINDING  HAVE_FC_ISO_FORTRAN_2008

        HAVE_FC_LONG_LINES        HAVE_FC_MOVE_ALLOC  HAVE_FC_ON_THE_FLY_SHAPE

           HAVE_FC_PRIVATE         HAVE_FC_PROTECTED           HAVE_FC_SHIFTLR

         HAVE_FC_STREAM_IO                  HAVE_FFT             HAVE_FFT_DFTI

              HAVE_FFT_MPI           HAVE_FFT_SERIAL               HAVE_GW_DPC

               HAVE_LINALG         HAVE_LINALG_AXPBY        HAVE_LINALG_GEMM3M

  HAVE_LINALG_MKL_IMATCOPY   HAVE_LINALG_MKL_OMATADD  HAVE_LINALG_MKL_OMATCOPY

   HAVE_LINALG_MKL_THREADS        HAVE_LINALG_SERIAL                  HAVE_MPI

                 HAVE_MPI2        HAVE_MPI_INTEGER16               HAVE_MPI_IO

 HAVE_MPI_TYPE_CREATE_S...               HAVE_NETCDF                HAVE_NUMPY

             HAVE_OS_LINUX         HAVE_TIMER_ABINIT                  HAVE_XML

              USE_MACROAVE

- input  file    -> sp.in
- output file    -> sp.out
- root for input  files -> spi
- root for output files -> spo

-instrng: 54 lines of input have been read from file sp.in

 Please give name of formatted atomic psp file
 For atom type 1, psp file is ../../PsP/Ca.psp8

 Please give name of formatted atomic psp file
 For atom type 2, psp file is ../../PsP/Ti.psp8

 Please give name of formatted atomic psp file
 For atom type 3, psp file is ../../PsP/O.psp8
  read the values zionpsp= 10.0 , pspcod=   8 , lmax=   2
  read the values zionpsp= 12.0 , pspcod=   8 , lmax=   2
  read the values zionpsp=  6.0 , pspcod=   8 , lmax=   2

 inpspheads: deduce mpsang = 3, n1xccc = 2501.

invars1m : enter jdtset= 0

 symlatt: the Bravais lattice is oP (primitive orthorhombic)
  xred   is defined in input file
 ingeo: takes atomic coordinates from input array xred

 symlatt: the Bravais lattice is oP (primitive orthorhombic)

 symlatt: the Bravais lattice is oP (primitive orthorhombic)
 symspgr: spgroup=  62  Pn m a   (=D2h^16)
 For input ecut=  4.000000E+01 best grid ngfft=      32      32      45
       max ecut=  4.031551E+01

 ==== FFT mesh ====
  FFT mesh divisions ........................    32   32   45
  Augmented FFT divisions ...................    33   33   45
  FFT algorithm .............................   512
  FFT cache size ............................    16
 getmpw: optimal value of mpw= 2786

 Symmetries : space group Pn m a (# 62); Bravais oP (primitive ortho.)

 getdim_nloc : deduce lmnmax  =  18, lnmax  =   6,
                      lmnmaxso=  18, lnmaxso=   6.
     intxc =       0    ionmov =       0      iscf =       7    lmnmax =       6
     lnmax =       6     mgfft =      45  mpssoang =       3    mqgrid =    3001
     natom =      20  nloc_mem =       1    nspden =       1   nspinor =       1
    nsppol =       1      nsym =       8    n1xccc =    2501    ntypat =       3
    occopt =       1   xclevel =       2
-    mband =          90        mffmem =           1         mkmem =           8
       mpw =        2786          nfft =       46080          nkpt =           8
  Rough estimation (10% accuracy) of disk space for files :

 The job will continue.
------------- Echo of variables that govern the present computation ------------
-
- outvars: echo of selected default values
-   iomode0 =  0 , fftalg0 =512 , wfoptalg0 =  0
-
- outvars: echo of global parameters not present in the input file
-  max_nthreads =    0
-
 -outvars: echo values of preprocessed input variables --------

 These variables are accessible in NetCDF format (spo_OUT.nc)

            acell      5.4040000000E+00  5.5130000000E+00  7.6970000000E+00 Bohr
              amu      4.00780000E+01  4.78800000E+01  1.59994000E+01
             ecut      4.00000000E+01 Hartree
-          fftalg         512
              ixc          11
              kpt      1.25000000E-01  1.25000000E-01  1.25000000E-01
                       3.75000000E-01  1.25000000E-01  1.25000000E-01
                       1.25000000E-01  3.75000000E-01  1.25000000E-01
                       3.75000000E-01  3.75000000E-01  1.25000000E-01
                       1.25000000E-01  1.25000000E-01  3.75000000E-01
                       3.75000000E-01  1.25000000E-01  3.75000000E-01
                       1.25000000E-01  3.75000000E-01  3.75000000E-01
                       3.75000000E-01  3.75000000E-01  3.75000000E-01
         kptrlatt        4    0    0      0    4    0      0    0    4
          kptrlen      2.16160000E+01
P           mkmem           8
            natom          20
            nband          90
            ngfft          32      32      45
             nkpt           8
             nsym           8
           ntypat           3
              occ      2.000000  2.000000  2.000000  2.000000  2.000000  2.000000
                       2.000000  2.000000  2.000000  2.000000  2.000000  2.000000
                       2.000000  2.000000  2.000000  2.000000  2.000000  2.000000
                       2.000000  2.000000  2.000000  2.000000  2.000000  2.000000
                       2.000000  2.000000  2.000000  2.000000  2.000000  2.000000
                       2.000000  2.000000  2.000000  2.000000  2.000000  2.000000
                       2.000000  2.000000  2.000000  2.000000  2.000000  2.000000
                       2.000000  2.000000  2.000000  2.000000  2.000000  2.000000
                       2.000000  2.000000  2.000000  2.000000  2.000000  2.000000
                       2.000000  2.000000  2.000000  2.000000  2.000000  2.000000
                       2.000000  2.000000  2.000000  2.000000  2.000000  2.000000
                       2.000000  2.000000  2.000000  2.000000  2.000000  2.000000
                       2.000000  2.000000  2.000000  2.000000  2.000000  2.000000
                       2.000000  2.000000  0.000000  0.000000  0.000000  0.000000
                       0.000000  0.000000  0.000000  0.000000  0.000000  0.000000
           shiftk      5.00000000E-01  5.00000000E-01  5.00000000E-01
          spgroup          62
           symrel      1  0  0   0  1  0   0  0  1      -1  0  0   0 -1  0   0  0 -1
                      -1  0  0   0  1  0   0  0 -1       1  0  0   0 -1  0   0  0  1
                      -1  0  0   0 -1  0   0  0  1       1  0  0   0  1  0   0  0 -1
                       1  0  0   0 -1  0   0  0 -1      -1  0  0   0  1  0   0  0  1
            tnons      0.0000000  0.0000000  0.0000000     0.0000000  0.0000000  0.0000000
                       0.5000000  0.5000000  0.5000000     0.5000000  0.5000000  0.5000000
                       0.0000000  0.0000000  0.5000000     0.0000000  0.0000000  0.5000000
                       0.5000000  0.5000000  0.0000000     0.5000000  0.5000000  0.0000000
           toldfe      1.00000000E-10 Hartree
            typat      1  1  1  1  2  2  2  2  3  3  3  3  3  3  3  3  3  3  3  3
              wtk        0.12500    0.12500    0.12500    0.12500    0.12500    0.12500
                         0.12500    0.12500
           xangst      2.4307225899E-02  2.7866564940E+00  3.0548077309E+00
                       1.4055295917E+00  1.3279795185E+00  3.0548077309E+00
                       1.4541440435E+00  1.5893744325E+00  1.0182692436E+00
                       2.8353664093E+00  1.3069745700E-01  1.0182692436E+00
                       0.0000000000E+00  1.4586769755E+00  0.0000000000E+00
                       0.0000000000E+00  1.4586769755E+00  2.0365384873E+00
                       1.4298368176E+00  0.0000000000E+00  0.0000000000E+00
                       1.4298368176E+00  0.0000000000E+00  2.0365384873E+00
                       2.2334051091E-01  1.3985794841E+00  1.0182692436E+00
                       5.9338227931E-01  6.0710135719E-01  2.2023127201E+00
                       5.9338227931E-01  6.0710135719E-01  3.9073027417E+00
                       8.3645453830E-01  2.0657783327E+00  3.9073027417E+00
                       8.3645453830E-01  2.0657783327E+00  2.2023127201E+00
                       1.2064963067E+00  2.8572564596E+00  1.0182692436E+00
                       1.6531773285E+00  6.0097491390E-02  3.0548077309E+00
                       2.0232190969E+00  8.5157561828E-01  1.8707642544E+00
                       2.0232190969E+00  8.5157561828E-01  1.6577423286E-01
                       2.2662913559E+00  2.3102525938E+00  1.6577423286E-01
                       2.2662913559E+00  2.3102525938E+00  1.8707642544E+00
                       2.6363331243E+00  1.5187744669E+00  3.0548077309E+00
            xcart      4.5934000000E-02  5.2660176000E+00  5.7727500000E+00
                       2.6560660000E+00  2.5095176000E+00  5.7727500000E+00
                       2.7479340000E+00  3.0034824000E+00  1.9242500000E+00
                       5.3580660000E+00  2.4698240000E-01  1.9242500000E+00
                       0.0000000000E+00  2.7565000000E+00  0.0000000000E+00
                       0.0000000000E+00  2.7565000000E+00  3.8485000000E+00
                       2.7020000000E+00  0.0000000000E+00  0.0000000000E+00
                       2.7020000000E+00  0.0000000000E+00  3.8485000000E+00
                       4.2205240000E-01  2.6429322000E+00  1.9242500000E+00
                       1.1213300000E+00  1.1472553000E+00  4.1617679000E+00
                       1.1213300000E+00  1.1472553000E+00  7.3837321000E+00
                       1.5806700000E+00  3.9037553000E+00  7.3837321000E+00
                       1.5806700000E+00  3.9037553000E+00  4.1617679000E+00
                       2.2799476000E+00  5.3994322000E+00  1.9242500000E+00
                       3.1240524000E+00  1.1356780000E-01  5.7727500000E+00
                       3.8233300000E+00  1.6092447000E+00  3.5352321000E+00
                       3.8233300000E+00  1.6092447000E+00  3.1326790000E-01
                       4.2826700000E+00  4.3657447000E+00  3.1326790000E-01
[...]
  -0.78470   -0.75773   -0.71282   -0.69389   -0.33535   -0.31258   -0.21996   -0.18582
  -0.17500   -0.16117    0.02945    0.04136    0.05827    0.07325    0.10217    0.11858
   0.12948    0.16634    0.47718    0.52484    0.60358    0.63034    0.64501    0.67498
   0.68581    0.71106    0.73975    0.75553    0.76461    0.79963    0.81464    0.84293
   0.87680    0.88267    0.90847    0.94026    0.95682    0.99610    1.04008    1.09027
   1.10222    1.10612    1.15308    1.17484    1.18212    1.21583    1.29242    1.35049
   1.38796    1.39871    1.49990    1.54103    1.57624    1.62724    1.68293    1.69406
   1.73607    1.74771    1.78798    1.80746    1.81761    1.84726    1.85130    1.88322
   1.92166    1.94617    1.96335    2.00171    2.09019    2.13467    2.15176    2.17170
   2.30267    2.31499    2.32327    2.34808    2.35323    2.36122    2.39648    2.41391
   2.43015    2.43987    2.46454    2.48429    2.49956    2.52209    2.53742    2.55318
   2.56800    2.65557
 kpt#   5, nband= 90, wtk=  0.12500, kpt=  0.1250  0.1250  0.3750 (reduced coord)
  -0.82959   -0.79377   -0.69647   -0.67530   -0.25800   -0.20392   -0.15621   -0.14117
  -0.13338   -0.09688   -0.05124   -0.01174    0.00130    0.04104    0.05273    0.07917
   0.19012    0.25221    0.38932    0.45160    0.46677    0.49065    0.54226    0.60931
   0.63007    0.63348    0.69306    0.70615    0.72985    0.77184    0.81636    0.84665
   0.87087    0.88858    0.93095    0.96320    0.96580    1.02609    1.04521    1.06176
   1.16782    1.19616    1.26151    1.27174    1.28925    1.30853    1.39090    1.42579
   1.51054    1.52844    1.56769    1.59986    1.62216    1.66293    1.71085    1.74787
   1.76092    1.77884    1.79963    1.86010    1.87074    1.89099    1.89823    1.91711
   1.95147    1.98153    1.99605    2.02844    2.07465    2.10626    2.12474    2.16320
   2.17660    2.20994    2.23694    2.25401    2.27972    2.30268    2.31351    2.35246
   2.35551    2.40253    2.43686    2.44137    2.47619    2.48349    2.52003    2.53590
   2.55966    2.58873
 kpt#   6, nband= 90, wtk=  0.12500, kpt=  0.3750  0.1250  0.3750 (reduced coord)
  -0.79139   -0.75917   -0.73471   -0.70881   -0.23518   -0.21990   -0.18765   -0.17141
  -0.11167   -0.10386   -0.07071   -0.05692   -0.03194    0.01092    0.01742    0.04835
   0.30940    0.37225    0.39110    0.47412    0.49321    0.52265    0.56230    0.61899
   0.66052    0.66899    0.72751    0.74143    0.79597    0.80858    0.83403    0.85544
   0.86338    0.87569    0.89095    0.92032    0.97335    0.99359    1.01621    1.04402
   1.17699    1.18788    1.26477    1.27933    1.30326    1.34823    1.38321    1.41154
   1.42523    1.45274    1.50135    1.51309    1.54532    1.58874    1.62902    1.65011
   1.69676    1.73335    1.76678    1.81390    1.85745    1.88200    1.90342    1.91138
   1.97744    1.99285    2.00997    2.09770    2.10956    2.11670    2.14465    2.17123
   2.17982    2.21588    2.23189    2.25182    2.28608    2.30985    2.31766    2.34655
   2.36769    2.37982    2.44232    2.46601    2.48484    2.50512    2.55349    2.58802
   2.60603    2.64404
 kpt#   7, nband= 90, wtk=  0.12500, kpt=  0.1250  0.3750  0.3750 (reduced coord)
  -0.79274   -0.76033   -0.73676   -0.71054   -0.23087   -0.22241   -0.17976   -0.16181
  -0.10633   -0.10053   -0.06572   -0.05532   -0.02629    0.00620    0.01698    0.04558
   0.30696    0.36333    0.39587    0.46950    0.47985    0.54629    0.55328    0.61585
   0.64424    0.65950    0.70751    0.73594    0.78868    0.80303    0.82897    0.86363
   0.87812    0.88969    0.91528    0.93521    0.95287    1.00082    1.01447    1.06129
   1.14955    1.19678    1.22752    1.25715    1.30331    1.31129    1.33854    1.34624
   1.39946    1.43039    1.44620    1.45648    1.66331    1.67422    1.69178    1.73719
   1.74691    1.78220    1.79061    1.84206    1.86291    1.86775    1.89470    1.93230
   1.95724    1.99506    2.00797    2.05285    2.09683    2.12280    2.13452    2.17305
   2.19140    2.21710    2.24392    2.26324    2.28062    2.30760    2.36309    2.37660
   2.39648    2.44052    2.45011    2.47994    2.50401    2.52308    2.55548    2.58063
   2.59883    2.62898
 kpt#   8, nband= 90, wtk=  0.12500, kpt=  0.3750  0.3750  0.3750 (reduced coord)
  -0.76698   -0.74177   -0.73771   -0.71566   -0.30298   -0.27988   -0.24611   -0.22928
  -0.14322   -0.11645   -0.04595   -0.02392    0.05231    0.07797    0.08807    0.11027
   0.23669    0.27397    0.39367    0.42407    0.57371    0.61717    0.64625    0.66368
   0.68932    0.69916    0.75607    0.77608    0.80945    0.81474    0.81758    0.83851
   0.87034    0.89896    0.91232    0.95931    0.99413    1.02833    1.04010    1.04576
   1.10315    1.13273    1.15344    1.19050    1.24881    1.27686    1.32278    1.35471
   1.36646    1.39498    1.43497    1.47181    1.51098    1.59892    1.60702    1.66637
   1.69058    1.70045    1.77372    1.80221    1.82111    1.82559    1.86382    1.90127
   1.94527    1.99672    2.04276    2.10646    2.13526    2.15934    2.19084    2.21105
   2.26319    2.27369    2.28337    2.30676    2.32454    2.34859    2.38425    2.41002
   2.44603    2.46735    2.47537    2.49871    2.51864    2.52103    2.54285    2.55391
   2.63831    2.65769
 Total charge density [el/Bohr^3]
      Maximum=    1.8082E+00  at reduced coord.    0.0000    0.5938    0.5556
 Next maximum=    1.8082E+00  at reduced coord.    0.5000    0.0938    0.5556
      Minimum=    7.8109E-02  at reduced coord.    0.0000    0.0313    0.2444
 Next minimum=    7.8109E-02  at reduced coord.    0.5000    0.5313    0.2444
   Integrated=    1.6000E+02

 Cartesian components of stress tensor (hartree/bohr^3)
  sigma(1 1)= -3.42021995E-01  sigma(3 2)=  0.00000000E+00
  sigma(2 2)= -3.33005056E-01  sigma(3 1)=  0.00000000E+00
  sigma(3 3)= -3.45848101E-01  sigma(2 1)=  0.00000000E+00

-Cartesian components of stress tensor (GPa)         [Pressure=  1.0012E+04 GPa]
- sigma(1 1)= -1.00626328E+04  sigma(3 2)=  0.00000000E+00
- sigma(2 2)= -9.79734535E+03  sigma(3 1)=  0.00000000E+00
- sigma(3 3)= -1.01752007E+04  sigma(2 1)=  0.00000000E+00

== END DATASET(S) ==============================================================

 -outvars: echo values of variables after computation  --------

 These variables are accessible in NetCDF format (spo_OUT.nc)

            acell      5.4040000000E+00  5.5130000000E+00  7.6970000000E+00 Bohr
              amu      4.00780000E+01  4.78800000E+01  1.59994000E+01
             ecut      4.00000000E+01 Hartree
           etotal     -5.3808548943E+02
            fcart     -9.2722113451E-02  6.4494109673E-01  6.9424154128E-19
                       9.2722113451E-02  6.4494109673E-01  6.9424154128E-19
                      -9.2722113451E-02 -6.4494109673E-01  6.9424154128E-19
                       9.2722113451E-02 -6.4494109673E-01  6.9424154128E-19
                      -1.3877787808E-18  0.0000000000E+00  6.9424154128E-19
                      -1.3877787808E-18  0.0000000000E+00  6.9424154128E-19
                      -1.3877787808E-18  0.0000000000E+00  6.9424154128E-19
                      -1.3877787808E-18  0.0000000000E+00  6.9424154128E-19
                       2.1388791269E-01  2.5023354358E-01  7.0128455916E-19
                      -1.8857193393E-01 -3.6392870981E-02  7.8483739775E-02
                      -1.8857193393E-01 -3.6392870981E-02 -7.8483739775E-02
                       1.8857193393E-01 -3.6392870981E-02 -7.8483739775E-02
                       1.8857193393E-01 -3.6392870981E-02  7.8483739775E-02
                      -2.1388791269E-01  2.5023354358E-01  6.9072003234E-19
                       2.1388791269E-01 -2.5023354358E-01  6.9776305022E-19
                      -1.8857193393E-01  3.6392870981E-02 -7.8483739775E-02
                      -1.8857193393E-01  3.6392870981E-02  7.8483739775E-02
                       1.8857193393E-01  3.6392870981E-02  7.8483739775E-02
                       1.8857193393E-01  3.6392870981E-02 -7.8483739775E-02
                      -2.1388791269E-01 -2.5023354358E-01  6.8719852340E-19
-          fftalg         512
              ixc          11
              kpt      1.25000000E-01  1.25000000E-01  1.25000000E-01
                       3.75000000E-01  1.25000000E-01  1.25000000E-01
                       1.25000000E-01  3.75000000E-01  1.25000000E-01
                       3.75000000E-01  3.75000000E-01  1.25000000E-01
                       1.25000000E-01  1.25000000E-01  3.75000000E-01
                       3.75000000E-01  1.25000000E-01  3.75000000E-01
                       1.25000000E-01  3.75000000E-01  3.75000000E-01
                       3.75000000E-01  3.75000000E-01  3.75000000E-01
         kptrlatt        4    0    0      0    4    0      0    0    4
          kptrlen      2.16160000E+01
P           mkmem           8
            natom          20
            nband          90
            ngfft          32      32      45
             nkpt           8
             nsym           8
           ntypat           3
              occ      2.000000  2.000000  2.000000  2.000000  2.000000  2.000000
                       2.000000  2.000000  2.000000  2.000000  2.000000  2.000000
                       2.000000  2.000000  2.000000  2.000000  2.000000  2.000000
                       2.000000  2.000000  2.000000  2.000000  2.000000  2.000000
                       2.000000  2.000000  2.000000  2.000000  2.000000  2.000000
                       2.000000  2.000000  2.000000  2.000000  2.000000  2.000000
                       2.000000  2.000000  2.000000  2.000000  2.000000  2.000000
                       2.000000  2.000000  2.000000  2.000000  2.000000  2.000000
                       2.000000  2.000000  2.000000  2.000000  2.000000  2.000000
                       2.000000  2.000000  2.000000  2.000000  2.000000  2.000000
                       2.000000  2.000000  2.000000  2.000000  2.000000  2.000000
                       2.000000  2.000000  2.000000  2.000000  2.000000  2.000000
                       2.000000  2.000000  2.000000  2.000000  2.000000  2.000000
                       2.000000  2.000000  0.000000  0.000000  0.000000  0.000000
                       0.000000  0.000000  0.000000  0.000000  0.000000  0.000000
           shiftk      5.00000000E-01  5.00000000E-01  5.00000000E-01
          spgroup          62
           strten     -3.4202199488E-01 -3.3300505591E-01 -3.4584810093E-01
                       0.0000000000E+00  0.0000000000E+00  0.0000000000E+00
           symrel      1  0  0   0  1  0   0  0  1      -1  0  0   0 -1  0   0  0 -1
                      -1  0  0   0  1  0   0  0 -1       1  0  0   0 -1  0   0  0  1
                      -1  0  0   0 -1  0   0  0  1       1  0  0   0  1  0   0  0 -1
                       1  0  0   0 -1  0   0  0 -1      -1  0  0   0  1  0   0  0  1
            tnons      0.0000000  0.0000000  0.0000000     0.0000000  0.0000000  0.0000000
                       0.5000000  0.5000000  0.5000000     0.5000000  0.5000000  0.5000000
                       0.0000000  0.0000000  0.5000000     0.0000000  0.0000000  0.5000000
                       0.5000000  0.5000000  0.0000000     0.5000000  0.5000000  0.0000000
           toldfe      1.00000000E-10 Hartree
            typat      1  1  1  1  2  2  2  2  3  3  3  3  3  3  3  3  3  3  3  3
              wtk        0.12500    0.12500    0.12500    0.12500    0.12500    0.12500
                         0.12500    0.12500
           xangst      2.4307225899E-02  2.7866564940E+00  3.0548077309E+00
                       1.4055295917E+00  1.3279795185E+00  3.0548077309E+00
                       1.4541440435E+00  1.5893744325E+00  1.0182692436E+00
                       2.8353664093E+00  1.3069745700E-01  1.0182692436E+00
                       0.0000000000E+00  1.4586769755E+00  0.0000000000E+00
                       0.0000000000E+00  1.4586769755E+00  2.0365384873E+00
                       1.4298368176E+00  0.0000000000E+00  0.0000000000E+00
                       1.4298368176E+00  0.0000000000E+00  2.0365384873E+00
                       2.2334051091E-01  1.3985794841E+00  1.0182692436E+00
                       5.9338227931E-01  6.0710135719E-01  2.2023127201E+00
                       5.9338227931E-01  6.0710135719E-01  3.9073027417E+00
                       8.3645453830E-01  2.0657783327E+00  3.9073027417E+00
                       8.3645453830E-01  2.0657783327E+00  2.2023127201E+00
                       1.2064963067E+00  2.8572564596E+00  1.0182692436E+00
                       1.6531773285E+00  6.0097491390E-02  3.0548077309E+00
                       2.0232190969E+00  8.5157561828E-01  1.8707642544E+00
                       2.0232190969E+00  8.5157561828E-01  1.6577423286E-01
                       2.2662913559E+00  2.3102525938E+00  1.6577423286E-01
                       2.2662913559E+00  2.3102525938E+00  1.8707642544E+00
                       2.6363331243E+00  1.5187744669E+00  3.0548077309E+00
            xcart      4.5934000000E-02  5.2660176000E+00  5.7727500000E+00
                       2.6560660000E+00  2.5095176000E+00  5.7727500000E+00
                       2.7479340000E+00  3.0034824000E+00  1.9242500000E+00
                       5.3580660000E+00  2.4698240000E-01  1.9242500000E+00
                       0.0000000000E+00  2.7565000000E+00  0.0000000000E+00
                       0.0000000000E+00  2.7565000000E+00  3.8485000000E+00
                       2.7020000000E+00  0.0000000000E+00  0.0000000000E+00
                       2.7020000000E+00  0.0000000000E+00  3.8485000000E+00
                       4.2205240000E-01  2.6429322000E+00  1.9242500000E+00
                       1.1213300000E+00  1.1472553000E+00  4.1617679000E+00
                       1.1213300000E+00  1.1472553000E+00  7.3837321000E+00
                       1.5806700000E+00  3.9037553000E+00  7.3837321000E+00
                       1.5806700000E+00  3.9037553000E+00  4.1617679000E+00
                       2.2799476000E+00  5.3994322000E+00  1.9242500000E+00
                       3.1240524000E+00  1.1356780000E-01  5.7727500000E+00
                       3.8233300000E+00  1.6092447000E+00  3.5352321000E+00
                       3.8233300000E+00  1.6092447000E+00  3.1326790000E-01
                       4.2826700000E+00  4.3657447000E+00  3.1326790000E-01
                       4.2826700000E+00  4.3657447000E+00  3.5352321000E+00
                       4.9819476000E+00  2.8700678000E+00  5.7727500000E+00
             xred      8.5000000000E-03  9.5520000000E-01  7.5000000000E-01
                       4.9150000000E-01  4.5520000000E-01  7.5000000000E-01
                       5.0850000000E-01  5.4480000000E-01  2.5000000000E-01
                       9.9150000000E-01  4.4800000000E-02  2.5000000000E-01
                       0.0000000000E+00  5.0000000000E-01  0.0000000000E+00
                       0.0000000000E+00  5.0000000000E-01  5.0000000000E-01
                       5.0000000000E-01  0.0000000000E+00  0.0000000000E+00
                       5.0000000000E-01  0.0000000000E+00  5.0000000000E-01
                       7.8100000000E-02  4.7940000000E-01  2.5000000000E-01
                       2.0750000000E-01  2.0810000000E-01  5.4070000000E-01
                       2.0750000000E-01  2.0810000000E-01  9.5930000000E-01
                       2.9250000000E-01  7.0810000000E-01  9.5930000000E-01
                       2.9250000000E-01  7.0810000000E-01  5.4070000000E-01
                       4.2190000000E-01  9.7940000000E-01  2.5000000000E-01
                       5.7810000000E-01  2.0600000000E-02  7.5000000000E-01
                       7.0750000000E-01  2.9190000000E-01  4.5930000000E-01
                       7.0750000000E-01  2.9190000000E-01  4.0700000000E-02
                       7.9250000000E-01  7.9190000000E-01  4.0700000000E-02
                       7.9250000000E-01  7.9190000000E-01  4.5930000000E-01
                       9.2190000000E-01  5.2060000000E-01  7.5000000000E-01
            znucl       20.00000   22.00000    8.00000

 Suggested references for the acknowledgment of ABINIT usage.

 Calculation completed.
.Delivered   0 WARNINGs and   1 COMMENTs to log file.

--- !FinalSummary
program: abinit
version: 8.11.13
start_datetime: Thu Dec 05 17:31:43 2019
end_datetime: Thu Dec 05 17:40:27 2019
overall_cpu_time:         518.1
overall_wall_time:         523.5
exit_requested_by_user: no
timelimit: 0
pseudos:
    Ca  : 465a3a044f2c7a72aff2b3fb3f797e8d
    Ti  : ea4ed3d71d7ed9998c7c8ddd5e23a4a6
    O   : abbcf0645b4a6d69360cd16bcad3e730
usepaw: 0
mpi_procs: 1
omp_threads: 1
num_warnings: 0
num_comments: 1
...