.Version 8.11.13 of ABINIT

 ABINIT is a project of the Universite Catholique de Louvain,
 Corning Inc. and other collaborators, see ~abinit/doc/developers/contributors.txt .
 acknowledgments of the ABINIT effort.

.Starting date : Thu 12 Dec 2019.
- ( at 14h53 )

 === Build Information ===
  Version       : 8.11.13
  Build target  : x86_64_linux_intel18.0
  Build date    : 20191206

 === Optimizations ===
  Debug level        : basic
  Optimization level : standard
  Architecture       : intel_xeon

 === Multicore ===
  Parallel build : yes
  Parallel I/O   : yes
  openMP support : no
  GPU support    : no

 === Connectors / Fallbacks ===
  Connectors on : yes
  Fallbacks on  : yes
  FFT flavor    : dfti
  LINALG flavor : mkl
  TIMER flavor  : abinit
  TRIO flavor   : netcdf

 === Experimental features ===
  Exports             : no
  GW double-precision : yes

 Default optimizations:
   --- None ---

 CPP options activated during the build:

                  CC_INTEL                   CXX_GNU                  FC_INTEL

 HAVE_FC_ALLOCATABLE_DT...             HAVE_FC_ASYNC  HAVE_FC_COMMAND_ARGUMENT

      HAVE_FC_COMMAND_LINE        HAVE_FC_CONTIGUOUS           HAVE_FC_CPUTIME

             HAVE_FC_ETIME              HAVE_FC_EXIT             HAVE_FC_FLUSH

             HAVE_FC_GAMMA            HAVE_FC_GETENV            HAVE_FC_GETPID

   HAVE_FC_IEEE_ARITHMETIC   HAVE_FC_IEEE_EXCEPTIONS             HAVE_FC_IOMSG

     HAVE_FC_ISO_C_BINDING  HAVE_FC_ISO_FORTRAN_2008        HAVE_FC_LONG_LINES

        HAVE_FC_MOVE_ALLOC  HAVE_FC_ON_THE_FLY_SHAPE           HAVE_FC_PRIVATE

         HAVE_FC_PROTECTED           HAVE_FC_SHIFTLR         HAVE_FC_STREAM_IO

            HAVE_FC_SYSTEM                  HAVE_FFT             HAVE_FFT_DFTI

              HAVE_FFT_MPI           HAVE_FFT_SERIAL               HAVE_GW_DPC

               HAVE_LINALG         HAVE_LINALG_AXPBY        HAVE_LINALG_GEMM3M

  HAVE_LINALG_MKL_IMATCOPY   HAVE_LINALG_MKL_OMATADD  HAVE_LINALG_MKL_OMATCOPY

   HAVE_LINALG_MKL_THREADS        HAVE_LINALG_SERIAL                  HAVE_MPI

                 HAVE_MPI2       HAVE_MPI_IALLREDUCE        HAVE_MPI_IALLTOALL

       HAVE_MPI_IALLTOALLV           HAVE_MPI_IBCAST         HAVE_MPI_IGATHERV

        HAVE_MPI_INTEGER16               HAVE_MPI_IO HAVE_MPI_TYPE_CREATE_S...

               HAVE_NETCDF           HAVE_NETCDF_MPI             HAVE_OS_LINUX

         HAVE_TIMER_ABINIT              USE_MACROAVE

- input  file    -> sp.in
- output file    -> sp.out
- root for input  files -> spi
- root for output files -> spo

-instrng: 54 lines of input have been read from file sp.in

 Please give name of formatted atomic psp file
 For atom type 1, psp file is ../../PsP/Ca.psp8

 Please give name of formatted atomic psp file
 For atom type 2, psp file is ../../PsP/Ti.psp8

 Please give name of formatted atomic psp file
 For atom type 3, psp file is ../../PsP/O.psp8
  read the values zionpsp= 10.0 , pspcod=   8 , lmax=   2
  read the values zionpsp= 12.0 , pspcod=   8 , lmax=   2
  read the values zionpsp=  6.0 , pspcod=   8 , lmax=   2

 inpspheads: deduce mpsang = 3, n1xccc = 2501.

invars1m : enter jdtset= 0

 symlatt: the Bravais lattice is oP (primitive orthorhombic)
  xred   is defined in input file
 ingeo: takes atomic coordinates from input array xred

 symlatt: the Bravais lattice is oP (primitive orthorhombic)

 symlatt: the Bravais lattice is oP (primitive orthorhombic)
 symspgr: spgroup=  62  Pn m a   (=D2h^16)

--- !WARNING
src_file: m_mpinfo.F90
src_line: 2286
message: |
    nproc_kpt= 2 >= nkpt= 1* nsppol= 1
...

--- !WARNING
src_file: m_mpi_setup.F90
src_line: 704
message: |
    Your number of spins*k-points (=1) will not distribute correctly
    You will leave some empty.
    YOU ARE STRONGLY ADVICED TO ACTIVATE AUTOMATIC PARALLELIZATION!
    PUT "AUTOPARAL=1" IN THE INPUT FILE.
...

 For input ecut=  3.000000E+01 best grid ngfft=      30      30      40
       max ecut=  3.331860E+01

 ==== FFT mesh ====
  FFT mesh divisions ........................    30   30   40
  Augmented FFT divisions ...................    31   31   40
  FFT algorithm .............................   512
  FFT cache size ............................    16
 getmpw: optimal value of mpw= 1801

 Symmetries : space group Pn m a (# 62); Bravais oP (primitive ortho.)

 getdim_nloc : deduce lmnmax  =  18, lnmax  =   6,
                      lmnmaxso=  18, lnmaxso=   6.
     intxc =       0    ionmov =       0      iscf =       7    lmnmax =       6
     lnmax =       6     mgfft =      40  mpssoang =       3    mqgrid =    3001
     natom =      20  nloc_mem =       1    nspden =       1   nspinor =       1
    nsppol =       1      nsym =       8    n1xccc =    2501    ntypat =       3
    occopt =       1   xclevel =       2
-    mband =          90        mffmem =           1         mkmem =           1
       mpw =        1801          nfft =       36000          nkpt =           1
  Rough estimation (10% accuracy) of disk space for files :

 The job will continue.
------------- Echo of variables that govern the present computation ------------
-
- outvars: echo of selected default values
-   iomode0 =  0 , fftalg0 =512 , wfoptalg0 =  0
-
- outvars: echo of global parameters not present in the input file
-  max_nthreads =    0
-
 -outvars: echo values of preprocessed input variables --------

 These variables are accessible in NetCDF format (spo_OUT.nc)

            acell      5.4040000000E+00  5.5130000000E+00  7.6970000000E+00 Bohr
              amu      4.00780000E+01  4.78800000E+01  1.59994000E+01
             ecut      3.00000000E+01 Hartree
-          fftalg         512
              ixc          11
              kpt      2.50000000E-01  2.50000000E-01  2.50000000E-01
         kptrlatt        2    0    0      0    2    0      0    0    2
          kptrlen      1.08080000E+01
P           mkmem           1
            natom          20
            nband          90
            ngfft          30      30      40
             nkpt           1
             nsym           8
           ntypat           3
              occ      2.000000  2.000000  2.000000  2.000000  2.000000  2.000000
                       2.000000  2.000000  2.000000  2.000000  2.000000  2.000000
                       2.000000  2.000000  2.000000  2.000000  2.000000  2.000000
                       2.000000  2.000000  2.000000  2.000000  2.000000  2.000000
                       2.000000  2.000000  2.000000  2.000000  2.000000  2.000000
                       2.000000  2.000000  2.000000  2.000000  2.000000  2.000000
                       2.000000  2.000000  2.000000  2.000000  2.000000  2.000000
                       2.000000  2.000000  2.000000  2.000000  2.000000  2.000000
                       2.000000  2.000000  2.000000  2.000000  2.000000  2.000000
                       2.000000  2.000000  2.000000  2.000000  2.000000  2.000000
                       2.000000  2.000000  2.000000  2.000000  2.000000  2.000000
                       2.000000  2.000000  2.000000  2.000000  2.000000  2.000000
                       2.000000  2.000000  2.000000  2.000000  2.000000  2.000000
                       2.000000  2.000000  0.000000  0.000000  0.000000  0.000000
                       0.000000  0.000000  0.000000  0.000000  0.000000  0.000000
           shiftk      5.00000000E-01  5.00000000E-01  5.00000000E-01
          spgroup          62
           symrel      1  0  0   0  1  0   0  0  1      -1  0  0   0 -1  0   0  0 -1
                      -1  0  0   0  1  0   0  0 -1       1  0  0   0 -1  0   0  0  1
                      -1  0  0   0 -1  0   0  0  1       1  0  0   0  1  0   0  0 -1
                       1  0  0   0 -1  0   0  0 -1      -1  0  0   0  1  0   0  0  1
            tnons      0.0000000  0.0000000  0.0000000     0.0000000  0.0000000  0.0000000
                       0.5000000  0.5000000  0.5000000     0.5000000  0.5000000  0.5000000
                       0.0000000  0.0000000  0.5000000     0.0000000  0.0000000  0.5000000
                       0.5000000  0.5000000  0.0000000     0.5000000  0.5000000  0.0000000
           toldfe      1.00000000E-10 Hartree
            typat      1  1  1  1  2  2  2  2  3  3  3  3  3  3  3  3  3  3  3  3
           xangst      2.4307225899E-02  2.7866564940E+00  3.0548077309E+00
                       1.4055295917E+00  1.3279795185E+00  3.0548077309E+00
                       1.4541440435E+00  1.5893744325E+00  1.0182692436E+00
                       2.8353664093E+00  1.3069745700E-01  1.0182692436E+00
                       0.0000000000E+00  1.4586769755E+00  0.0000000000E+00
                       0.0000000000E+00  1.4586769755E+00  2.0365384873E+00
                       1.4298368176E+00  0.0000000000E+00  0.0000000000E+00
                       1.4298368176E+00  0.0000000000E+00  2.0365384873E+00
                       2.2334051091E-01  1.3985794841E+00  1.0182692436E+00
                       5.9338227931E-01  6.0710135719E-01  2.2023127201E+00
                       5.9338227931E-01  6.0710135719E-01  3.9073027417E+00
                       8.3645453830E-01  2.0657783327E+00  3.9073027417E+00
                       8.3645453830E-01  2.0657783327E+00  2.2023127201E+00
                       1.2064963067E+00  2.8572564596E+00  1.0182692436E+00
                       1.6531773285E+00  6.0097491390E-02  3.0548077309E+00
                       2.0232190969E+00  8.5157561828E-01  1.8707642544E+00
                       2.0232190969E+00  8.5157561828E-01  1.6577423286E-01
                       2.2662913559E+00  2.3102525938E+00  1.6577423286E-01
                       2.2662913559E+00  2.3102525938E+00  1.8707642544E+00
                       2.6363331243E+00  1.5187744669E+00  3.0548077309E+00
            xcart      4.5934000000E-02  5.2660176000E+00  5.7727500000E+00
                       2.6560660000E+00  2.5095176000E+00  5.7727500000E+00
                       2.7479340000E+00  3.0034824000E+00  1.9242500000E+00
                       5.3580660000E+00  2.4698240000E-01  1.9242500000E+00
                       0.0000000000E+00  2.7565000000E+00  0.0000000000E+00
                       0.0000000000E+00  2.7565000000E+00  3.8485000000E+00
                       2.7020000000E+00  0.0000000000E+00  0.0000000000E+00
                       2.7020000000E+00  0.0000000000E+00  3.8485000000E+00
                       4.2205240000E-01  2.6429322000E+00  1.9242500000E+00
                       1.1213300000E+00  1.1472553000E+00  4.1617679000E+00
                       1.1213300000E+00  1.1472553000E+00  7.3837321000E+00
                       1.5806700000E+00  3.9037553000E+00  7.3837321000E+00
                       1.5806700000E+00  3.9037553000E+00  4.1617679000E+00
                       2.2799476000E+00  5.3994322000E+00  1.9242500000E+00
                       3.1240524000E+00  1.1356780000E-01  5.7727500000E+00
                       3.8233300000E+00  1.6092447000E+00  3.5352321000E+00
                       3.8233300000E+00  1.6092447000E+00  3.1326790000E-01
                       4.2826700000E+00  4.3657447000E+00  3.1326790000E-01
[...]
  Scalar calculation (no spin-orbit term)
  Nonlocal part applied using Legendre polynomials
  Max number of non-local projectors over l and type   2
  Highest angular momentum +1 .......   3
  Max number of (l,n)   components ..   6
  Max number of (l,m,n) components ..   6

 Pseudo-Core Charge Info:
   Number of radial points for pseudo-core charge .. 2501
   XC core-correction treatment (optnlxccc) ........    1
   Radius for pseudo-core charge for each type .....

  - Atom type    1 has pseudo-core radius ..  3.9900
  - Atom type    2 has pseudo-core radius ..  5.9900
  - Atom type    3 has pseudo-core radius ..  5.9900

 Info on the Q-grid used for form factors in spline form:
   Number of q-points for radial functions ffspl ..   3001
   Number of q-points for vlspl ...................   3001
   vloc is computed in Reciprocal Space
   model core charge treated in real-space

  XC functional for type 1 is 11
  Pseudo valence available: yes
  XC functional for type 2 is 11
  Pseudo valence available: yes
  XC functional for type 3 is 11
  Pseudo valence available: yes

 wfconv:    90 bands initialized randomly with npw=  1801, for ikpt=     1
_setup2: Arith. and geom. avg. npw (full set) are    1801.000    1801.000
 initro: for itypat=  1, take pseudo charge density from pp file
 initro: for itypat=  2, take pseudo charge density from pp file
 initro: for itypat=  3, take pseudo charge density from pp file

 getcut: wavevector=  0.0000  0.0000  0.0000  ngfft=  30  30  40
         ecut(hartree)=     30.000   => boxcut(ratio)=   2.10772

 ITER STEP NUMBER     1
 vtorho: nnsclo_now=2, note that nnsclo,dbl_nnsclo,istep=0 0 1
 Total charge density [el/Bohr^3]
      Maximum=    1.8796E+00  at reduced coord.    0.0000    0.6000    0.9500
      Minimum=    7.0051E-02  at reduced coord.    0.0000    0.0333    0.2500
   Integrated=    1.6000E+02
 ETOT  1  -536.91926456537    -5.369E+02 1.719E-01 9.628E+02
 scprqt: <Vxc>= -9.3344930E-01 hartree

 Simple mixing update:
  residual square of the potential:    606.358450758917
 scfcv_core: previous iteration took  3.00 [s]

[...]

 Pulay update with  1 previous iterations:
 mixing of old trial potential: alpha(m:m-4)=  0.509      0.491
 scfcv_core: previous iteration took  2.76 [s]

[...]

 Pulay update with  7 previous iterations:
 mixing of old trial potential: alpha(m:m-4)=  0.801      0.262     -0.550E-01 -0.594E-02 -0.222E-02
 scfcv_core: previous iteration took  1.41 [s]

 ITER STEP NUMBER    14
 vtorho: nnsclo_now=1, note that nnsclo,dbl_nnsclo,istep=0 0 14
 Total charge density [el/Bohr^3]
      Maximum=    1.7858E+00  at reduced coord.    0.0000    0.6000    0.9500
      Minimum=    6.9124E-02  at reduced coord.    0.0000    0.0333    0.2500
   Integrated=    1.6000E+02
 ETOT 14  -537.95328888101    -7.162E-12 7.093E-04 1.181E-12
 scprqt: <Vxc>= -9.3864753E-01 hartree

 At SCF step   14, etot is converged :
  for the second time, diff in etot=  7.162E-12 < toldfe=  1.000E-10

 Cartesian components of stress tensor (hartree/bohr^3)
  sigma(1 1)= -3.37154504E-01  sigma(3 2)=  0.00000000E+00
  sigma(2 2)= -3.29732933E-01  sigma(3 1)=  0.00000000E+00
  sigma(3 3)= -3.44591194E-01  sigma(2 1)=  0.00000000E+00

   fftdatar_write: About to write data to: spo_DEN with iomode: IO_MODE_FORTRAN

 ----iterations are completed or convergence reached----

 === Gap info ===
  >>>> For spin  1
   Minimum direct gap =   0.7485 [eV], located at k-point      :   0.2500  0.2500  0.2500
   Fundamental gap    =   0.7485 [eV], Top of valence bands at :   0.2500  0.2500  0.2500
                                       Bottom of conduction at :   0.2500  0.2500  0.2500
 Mean square residual over all n,k,spin=   10.221E-06; max=  70.926E-05
   0.2500  0.2500  0.2500    1  7.09261E-04 kpt; spin; max resid(k); each band:
  9.14E-17 7.64E-17 7.15E-17 5.79E-17 7.29E-17 7.08E-17 9.07E-17 8.06E-17
  7.02E-17 5.66E-17 7.16E-17 8.56E-17 4.71E-17 5.33E-17 5.84E-17 6.80E-17
  7.98E-17 1.02E-16 9.44E-17 7.98E-17 1.13E-16 8.81E-17 1.00E-16 4.63E-17
  5.56E-17 7.45E-17 8.26E-17 6.29E-17 6.37E-17 6.74E-17 6.83E-17 6.14E-17
  5.02E-17 3.22E-17 5.60E-17 7.60E-17 5.92E-17 7.45E-17 6.83E-17 7.56E-17
  8.54E-17 7.52E-17 6.41E-17 6.13E-17 6.06E-17 5.14E-17 4.93E-17 7.94E-17
  6.60E-17 6.34E-17 7.51E-17 8.14E-17 5.83E-17 5.69E-17 8.00E-17 8.57E-17
  6.31E-17 7.55E-17 7.16E-17 9.09E-17 6.30E-17 6.46E-17 9.83E-17 7.89E-17
  6.52E-17 8.11E-17 8.04E-17 9.52E-17 8.57E-17 9.19E-17 7.88E-17 1.01E-16
  1.35E-16 2.43E-16 4.45E-16 6.87E-16 4.42E-16 3.14E-15 1.50E-14 8.36E-13
  3.27E-12 2.06E-10 9.76E-11 4.62E-09 3.03E-08 3.96E-08 2.99E-06 1.07E-06
  2.06E-04 7.09E-04

   outwf: writing wavefunctions to: spo_WFK with iomode: IO_MODE_FORTRAN_MASTER
 prteigrs : about to open file spo_EIG
 Fermi (or HOMO) energy (hartree) =   2.38696   Average Vxc (hartree)=  -0.93865
 Eigenvalues (hartree) for nkpt=   1  k points:
 kpt#   1, nband= 90, wtk=  1.00000, kpt=  0.2500  0.2500  0.2500 (reduced coord)
  -0.81239   -0.74974   -0.72817   -0.68318   -0.28555   -0.26992   -0.17804   -0.17508
  -0.12259   -0.09611   -0.05602   -0.01997    0.00283    0.05561    0.06345    0.10841
   0.20616    0.32650    0.34071    0.46450    0.48412    0.52075    0.58911    0.63883
   0.67475    0.68329    0.71153    0.75975    0.78401    0.80583    0.82468    0.84713
   0.84816    0.88918    0.93011    0.96089    0.98583    1.01632    1.04390    1.05820
   1.13694    1.16329    1.19911    1.23219    1.25524    1.30947    1.34799    1.38313
   1.41358    1.45216    1.48191    1.53821    1.59772    1.61606    1.67549    1.69908
   1.72145    1.78804    1.79449    1.81079    1.81979    1.88381    1.90046    1.92151
   1.93444    1.99193    2.01084    2.07942    2.10900    2.15295    2.17586    2.20247
   2.21349    2.24131    2.25179    2.25899    2.27649    2.30842    2.35447    2.38696
   2.41447    2.44253    2.45393    2.48087    2.49297    2.50147    2.53773    2.56219
   2.58156    2.60065
 Total charge density [el/Bohr^3]
      Maximum=    1.7858E+00  at reduced coord.    0.0000    0.6000    0.9500
 Next maximum=    1.7858E+00  at reduced coord.    0.5000    0.1000    0.9500
      Minimum=    6.9124E-02  at reduced coord.    0.0000    0.0333    0.2500
 Next minimum=    6.9124E-02  at reduced coord.    0.5000    0.5333    0.2500
   Integrated=    1.6000E+02

 Cartesian components of stress tensor (hartree/bohr^3)
  sigma(1 1)= -3.37154504E-01  sigma(3 2)=  0.00000000E+00
  sigma(2 2)= -3.29732933E-01  sigma(3 1)=  0.00000000E+00
  sigma(3 3)= -3.44591194E-01  sigma(2 1)=  0.00000000E+00

-Cartesian components of stress tensor (GPa)         [Pressure=  9.9196E+03 GPa]
- sigma(1 1)= -9.91942631E+03  sigma(3 2)=  0.00000000E+00
- sigma(2 2)= -9.70107619E+03  sigma(3 1)=  0.00000000E+00
- sigma(3 3)= -1.01382212E+04  sigma(2 1)=  0.00000000E+00

== END DATASET(S) ==============================================================

 -outvars: echo values of variables after computation  --------

 These variables are accessible in NetCDF format (spo_OUT.nc)

            acell      5.4040000000E+00  5.5130000000E+00  7.6970000000E+00 Bohr
              amu      4.00780000E+01  4.78800000E+01  1.59994000E+01
             ecut      3.00000000E+01 Hartree
           etotal     -5.3795328888E+02
            fcart     -7.8150911642E-02  5.9914246793E-01 -3.4694469520E-19
                       7.8150911642E-02  5.9914246793E-01 -3.4694469520E-19
                      -7.8150911642E-02 -5.9914246793E-01 -3.4694469520E-19
                       7.8150911642E-02 -5.9914246793E-01 -3.4694469520E-19
                       1.3877787808E-18 -1.3877787808E-18 -3.4694469520E-19
                       1.3877787808E-18 -1.3877787808E-18 -3.4694469520E-19
                       1.3877787808E-18 -1.3877787808E-18 -3.4694469520E-19
                       1.3877787808E-18 -1.3877787808E-18 -3.4694469520E-19
                       1.8623160747E-01  2.1378808707E-01 -3.4694469520E-19
                      -1.6575120240E-01 -3.5194541716E-02  3.8634449993E-02
                      -1.6575120240E-01 -3.5194541716E-02 -3.8634449993E-02
                       1.6575120240E-01 -3.5194541716E-02 -3.8634449993E-02
                       1.6575120240E-01 -3.5194541716E-02  3.8634449993E-02
                      -1.8623160747E-01  2.1378808707E-01 -3.4694469520E-19
                       1.8623160747E-01 -2.1378808707E-01 -3.4694469520E-19
                      -1.6575120240E-01  3.5194541716E-02 -3.8634449993E-02
                      -1.6575120240E-01  3.5194541716E-02  3.8634449993E-02
                       1.6575120240E-01  3.5194541716E-02  3.8634449993E-02
                       1.6575120240E-01  3.5194541716E-02 -3.8634449993E-02
                      -1.8623160747E-01 -2.1378808707E-01 -3.4694469520E-19
-          fftalg         512
              ixc          11
              kpt      2.50000000E-01  2.50000000E-01  2.50000000E-01
         kptrlatt        2    0    0      0    2    0      0    0    2
          kptrlen      1.08080000E+01
P           mkmem           1
            natom          20
            nband          90
            ngfft          30      30      40
             nkpt           1
             nsym           8
           ntypat           3
              occ      2.000000  2.000000  2.000000  2.000000  2.000000  2.000000
                       2.000000  2.000000  2.000000  2.000000  2.000000  2.000000
                       2.000000  2.000000  2.000000  2.000000  2.000000  2.000000
                       2.000000  2.000000  2.000000  2.000000  2.000000  2.000000
                       2.000000  2.000000  2.000000  2.000000  2.000000  2.000000
                       2.000000  2.000000  2.000000  2.000000  2.000000  2.000000
                       2.000000  2.000000  2.000000  2.000000  2.000000  2.000000
                       2.000000  2.000000  2.000000  2.000000  2.000000  2.000000
                       2.000000  2.000000  2.000000  2.000000  2.000000  2.000000
                       2.000000  2.000000  2.000000  2.000000  2.000000  2.000000
                       2.000000  2.000000  2.000000  2.000000  2.000000  2.000000
                       2.000000  2.000000  2.000000  2.000000  2.000000  2.000000
                       2.000000  2.000000  2.000000  2.000000  2.000000  2.000000
                       2.000000  2.000000  0.000000  0.000000  0.000000  0.000000
                       0.000000  0.000000  0.000000  0.000000  0.000000  0.000000
           shiftk      5.00000000E-01  5.00000000E-01  5.00000000E-01
          spgroup          62
           strten     -3.3715450427E-01 -3.2973293317E-01 -3.4459119389E-01
                       0.0000000000E+00  0.0000000000E+00  0.0000000000E+00
           symrel      1  0  0   0  1  0   0  0  1      -1  0  0   0 -1  0   0  0 -1
                      -1  0  0   0  1  0   0  0 -1       1  0  0   0 -1  0   0  0  1
                      -1  0  0   0 -1  0   0  0  1       1  0  0   0  1  0   0  0 -1
                       1  0  0   0 -1  0   0  0 -1      -1  0  0   0  1  0   0  0  1
            tnons      0.0000000  0.0000000  0.0000000     0.0000000  0.0000000  0.0000000
                       0.5000000  0.5000000  0.5000000     0.5000000  0.5000000  0.5000000
                       0.0000000  0.0000000  0.5000000     0.0000000  0.0000000  0.5000000
                       0.5000000  0.5000000  0.0000000     0.5000000  0.5000000  0.0000000
           toldfe      1.00000000E-10 Hartree
            typat      1  1  1  1  2  2  2  2  3  3  3  3  3  3  3  3  3  3  3  3
           xangst      2.4307225899E-02  2.7866564940E+00  3.0548077309E+00
                       1.4055295917E+00  1.3279795185E+00  3.0548077309E+00
                       1.4541440435E+00  1.5893744325E+00  1.0182692436E+00
                       2.8353664093E+00  1.3069745700E-01  1.0182692436E+00
                       0.0000000000E+00  1.4586769755E+00  0.0000000000E+00
                       0.0000000000E+00  1.4586769755E+00  2.0365384873E+00
                       1.4298368176E+00  0.0000000000E+00  0.0000000000E+00
                       1.4298368176E+00  0.0000000000E+00  2.0365384873E+00
                       2.2334051091E-01  1.3985794841E+00  1.0182692436E+00
                       5.9338227931E-01  6.0710135719E-01  2.2023127201E+00
                       5.9338227931E-01  6.0710135719E-01  3.9073027417E+00
                       8.3645453830E-01  2.0657783327E+00  3.9073027417E+00
                       8.3645453830E-01  2.0657783327E+00  2.2023127201E+00
                       1.2064963067E+00  2.8572564596E+00  1.0182692436E+00
                       1.6531773285E+00  6.0097491390E-02  3.0548077309E+00
                       2.0232190969E+00  8.5157561828E-01  1.8707642544E+00
                       2.0232190969E+00  8.5157561828E-01  1.6577423286E-01
                       2.2662913559E+00  2.3102525938E+00  1.6577423286E-01
                       2.2662913559E+00  2.3102525938E+00  1.8707642544E+00
                       2.6363331243E+00  1.5187744669E+00  3.0548077309E+00
            xcart      4.5934000000E-02  5.2660176000E+00  5.7727500000E+00
                       2.6560660000E+00  2.5095176000E+00  5.7727500000E+00
                       2.7479340000E+00  3.0034824000E+00  1.9242500000E+00
                       5.3580660000E+00  2.4698240000E-01  1.9242500000E+00
                       0.0000000000E+00  2.7565000000E+00  0.0000000000E+00
                       0.0000000000E+00  2.7565000000E+00  3.8485000000E+00
                       2.7020000000E+00  0.0000000000E+00  0.0000000000E+00
                       2.7020000000E+00  0.0000000000E+00  3.8485000000E+00
                       4.2205240000E-01  2.6429322000E+00  1.9242500000E+00
                       1.1213300000E+00  1.1472553000E+00  4.1617679000E+00
                       1.1213300000E+00  1.1472553000E+00  7.3837321000E+00
                       1.5806700000E+00  3.9037553000E+00  7.3837321000E+00
                       1.5806700000E+00  3.9037553000E+00  4.1617679000E+00
                       2.2799476000E+00  5.3994322000E+00  1.9242500000E+00
                       3.1240524000E+00  1.1356780000E-01  5.7727500000E+00
                       3.8233300000E+00  1.6092447000E+00  3.5352321000E+00
                       3.8233300000E+00  1.6092447000E+00  3.1326790000E-01
                       4.2826700000E+00  4.3657447000E+00  3.1326790000E-01
                       4.2826700000E+00  4.3657447000E+00  3.5352321000E+00
                       4.9819476000E+00  2.8700678000E+00  5.7727500000E+00
             xred      8.5000000000E-03  9.5520000000E-01  7.5000000000E-01
                       4.9150000000E-01  4.5520000000E-01  7.5000000000E-01
                       5.0850000000E-01  5.4480000000E-01  2.5000000000E-01
                       9.9150000000E-01  4.4800000000E-02  2.5000000000E-01
                       0.0000000000E+00  5.0000000000E-01  0.0000000000E+00
                       0.0000000000E+00  5.0000000000E-01  5.0000000000E-01
                       5.0000000000E-01  0.0000000000E+00  0.0000000000E+00
                       5.0000000000E-01  0.0000000000E+00  5.0000000000E-01
                       7.8100000000E-02  4.7940000000E-01  2.5000000000E-01
                       2.0750000000E-01  2.0810000000E-01  5.4070000000E-01
                       2.0750000000E-01  2.0810000000E-01  9.5930000000E-01
                       2.9250000000E-01  7.0810000000E-01  9.5930000000E-01
                       2.9250000000E-01  7.0810000000E-01  5.4070000000E-01
                       4.2190000000E-01  9.7940000000E-01  2.5000000000E-01
                       5.7810000000E-01  2.0600000000E-02  7.5000000000E-01
                       7.0750000000E-01  2.9190000000E-01  4.5930000000E-01
                       7.0750000000E-01  2.9190000000E-01  4.0700000000E-02
                       7.9250000000E-01  7.9190000000E-01  4.0700000000E-02
                       7.9250000000E-01  7.9190000000E-01  4.5930000000E-01
                       9.2190000000E-01  5.2060000000E-01  7.5000000000E-01
            znucl       20.00000   22.00000    8.00000

 Suggested references for the acknowledgment of ABINIT usage.

 Calculation completed.
.Delivered   0 WARNINGs and   0 COMMENTs to log file.

--- !FinalSummary
program: abinit
version: 8.11.13
start_datetime: Thu Dec 12 14:53:57 2019
end_datetime: Thu Dec 12 14:54:54 2019
overall_cpu_time:          81.1
overall_wall_time:         115.2
exit_requested_by_user: no
timelimit: 0
pseudos:
    Ca  : 465a3a044f2c7a72aff2b3fb3f797e8d
    Ti  : ea4ed3d71d7ed9998c7c8ddd5e23a4a6
    O   : abbcf0645b4a6d69360cd16bcad3e730
usepaw: 0
mpi_procs: 2
omp_threads: 1
num_warnings: 0
num_comments: 0
...