.Version 8.11.13 of ABINIT

 ABINIT is a project of the Universite Catholique de Louvain,
 Corning Inc. and other collaborators, see ~abinit/doc/developers/contributors.txt .
 acknowledgments of the ABINIT effort.

.Starting date : Wed 22 Jan 2020.
- ( at 17h35 )

 === Build Information ===
  Version       : 8.11.13
  Build target  : x86_64_linux_intel14.0
  Build date    : 20191206

 === Optimizations ===
  Debug level        : basic
  Optimization level : standard
  Architecture       : intel_xeon

 === Multicore ===
  Parallel build : yes
  Parallel I/O   : yes
  openMP support : no
  GPU support    : no

 === Connectors / Fallbacks ===
  Connectors on : yes
  Fallbacks on  : yes
  FFT flavor    : fftw3
  LINALG flavor : mkl
  TIMER flavor  : abinit
  TRIO flavor   : netcdf

 === Experimental features ===
  Exports             : no
  GW double-precision : yes

 Default optimizations:
   -O3

 Optimizations for 43_ptgroups:
   -O0

 CPP options activated during the build:

                  CC_INTEL                   CXX_GNU                  FC_INTEL

 HAVE_FC_ALLOCATABLE_DT...             HAVE_FC_ASYNC  HAVE_FC_COMMAND_ARGUMENT

        HAVE_FC_CONTIGUOUS           HAVE_FC_CPUTIME             HAVE_FC_ETIME

              HAVE_FC_EXIT             HAVE_FC_FLUSH             HAVE_FC_GAMMA

            HAVE_FC_GETENV            HAVE_FC_GETPID   HAVE_FC_IEEE_ARITHMETIC

   HAVE_FC_IEEE_EXCEPTIONS             HAVE_FC_IOMSG     HAVE_FC_ISO_C_BINDING

  HAVE_FC_ISO_FORTRAN_2008        HAVE_FC_LONG_LINES        HAVE_FC_MOVE_ALLOC

  HAVE_FC_ON_THE_FLY_SHAPE           HAVE_FC_PRIVATE         HAVE_FC_PROTECTED

           HAVE_FC_SHIFTLR         HAVE_FC_STREAM_IO            HAVE_FC_SYSTEM

                  HAVE_FFT            HAVE_FFT_FFTW3              HAVE_FFT_MPI

           HAVE_FFT_SERIAL               HAVE_GW_DPC        HAVE_LIBPAW_ABINIT

         HAVE_LINALG_AXPBY        HAVE_LINALG_GEMM3M  HAVE_LINALG_MKL_IMATCOPY

   HAVE_LINALG_MKL_OMATADD  HAVE_LINALG_MKL_OMATCOPY   HAVE_LINALG_MKL_THREADS

        HAVE_LINALG_SERIAL                  HAVE_MPI                 HAVE_MPI2

       HAVE_MPI_IALLREDUCE        HAVE_MPI_IALLTOALL       HAVE_MPI_IALLTOALLV

           HAVE_MPI_IBCAST         HAVE_MPI_IGATHERV        HAVE_MPI_INTEGER16

               HAVE_MPI_IO HAVE_MPI_TYPE_CREATE_S...               HAVE_NETCDF

           HAVE_NETCDF_MPI                HAVE_NUMPY             HAVE_OS_LINUX

         HAVE_TIMER_ABINIT                  HAVE_XML              USE_MACROAVE

- input  file    -> opt.in
- output file    -> opt.out
- root for input  files -> opti
- root for output files -> opto

-instrng: 57 lines of input have been read from file opt.in

 Please give name of formatted atomic psp file
 For atom type 1, psp file is /CECI/home/ucl/naps/jovbever/.PsP/Si/Si.psp8
  read the values zionpsp=  4.0 , pspcod=   8 , lmax=   2

 inpspheads: deduce mpsang = 3, n1xccc = 2501.

invars1m : enter jdtset= 0

 symlatt: the Bravais lattice is cF (face-centered cubic)
  xred   is defined in input file
 ingeo: takes atomic coordinates from input array xred

 symlatt: the Bravais lattice is cF (face-centered cubic)

 symlatt: the Bravais lattice is cF (face-centered cubic)

--- !COMMENT
src_file: m_symfind.F90
src_line: 931
message: |
    The Bravais lattice determined only from the primitive
    vectors, bravais(1)=  7, is more symmetric
    than the real one, iholohedry=  1, obtained by taking into
    account the atomic positions. Start deforming the primitive vector set.
...

 symlatt: the Bravais lattice is hR (rhombohedral)

--- !COMMENT
src_file: m_symfind.F90
src_line: 940
message: |
    The Bravais lattice determined from modified primitive
    vectors, bravais(1)=  5, has a lower symmetry than before,
    but is still more symmetric than the real one, iholohedry=  1
    obtained by taking into account the atomic positions.
...

 symlatt: the Bravais lattice is mC (one-face-centered monoclinic)

--- !COMMENT
src_file: m_symfind.F90
src_line: 940
message: |
    The Bravais lattice determined from modified primitive
    vectors, bravais(1)=  2, has a lower symmetry than before,
    but is still more symmetric than the real one, iholohedry=  1
    obtained by taking into account the atomic positions.
...

 symlatt: the Bravais lattice is aP (primitive triclinic)
 symspgr: spgroup=   1  P1   (=C1^1)

--- !WARNING
src_file: m_mpinfo.F90
src_line: 2292
message: |
    nkpt*nsppol (128) is not a multiple of nproc_kpt (14)
    The k-point parallelisation is inefficient. (Ignore this warning if this is not a GS run)
...

 For input ecut=  1.764000E+01 best grid ngfft=      32      32      32
       max ecut=  1.965348E+01

 ==== FFT mesh ====
  FFT mesh divisions ........................    32   32   32
  Augmented FFT divisions ...................    33   33   32
  FFT algorithm .............................   312
  FFT cache size ............................    16
 getmpw: optimal value of mpw= 1300

 Symmetries : space group P1 (#  1); Bravais aP (primitive triclinic)

 getdim_nloc : deduce lmnmax  =  18, lnmax  =   6,
                      lmnmaxso=  18, lnmaxso=   6.
     intxc =       0    ionmov =       2      iscf =       7    lmnmax =       6
     lnmax =       6     mgfft =      32  mpssoang =       3    mqgrid =    3001
     natom =       2  nloc_mem =       1    nspden =       1   nspinor =       1
    nsppol =       1      nsym =       1    n1xccc =    2501    ntypat =       1
    occopt =       1   xclevel =       2
-    mband =           6        mffmem =           1         mkmem =          10
       mpw =        1300          nfft =       32768          nkpt =         128
  Rough estimation (10% accuracy) of disk space for files :

 The job will continue.
------------- Echo of variables that govern the present computation ------------
-
- outvars: echo of selected default values
-   iomode0 =  0 , fftalg0 =312 , wfoptalg0 =  0
-
- outvars: echo of global parameters not present in the input file
-  max_nthreads =    0
-
 -outvars: echo values of preprocessed input variables --------

 These variables are accessible in NetCDF format (opto_OUT.nc)

            acell      1.1338356797E+01  1.1338356797E+01  1.1338356797E+01 Bohr
              amu      2.80855000E+01
          dilatmx      1.05000000E+00
             ecut      1.60000000E+01 Hartree
           ecutsm      5.00000000E-01 Hartree
-          fftalg         312
           ionmov           2
              ixc          11
              kpt     -1.25000000E-01 -2.50000000E-01  0.00000000E+00
                      -2.50000000E-01 -1.25000000E-01  0.00000000E+00
                      -1.25000000E-01 -1.25000000E-01  1.25000000E-01
                      -1.25000000E-01  5.00000000E-01  0.00000000E+00
                      -2.50000000E-01 -3.75000000E-01  0.00000000E+00
                      -1.25000000E-01 -3.75000000E-01  1.25000000E-01
                      -3.75000000E-01 -2.50000000E-01  0.00000000E+00
                      -2.50000000E-01 -2.50000000E-01  1.25000000E-01
                      -1.25000000E-01 -2.50000000E-01  2.50000000E-01
                       5.00000000E-01 -1.25000000E-01  0.00000000E+00
                      -3.75000000E-01 -1.25000000E-01  1.25000000E-01
                      -2.50000000E-01 -1.25000000E-01  2.50000000E-01
                      -1.25000000E-01 -1.25000000E-01  3.75000000E-01
                      -1.25000000E-01  2.50000000E-01  0.00000000E+00
                      -2.50000000E-01  3.75000000E-01  0.00000000E+00
                      -1.25000000E-01  3.75000000E-01  1.25000000E-01
                      -3.75000000E-01  5.00000000E-01  0.00000000E+00
                      -2.50000000E-01  5.00000000E-01  1.25000000E-01
                      -1.25000000E-01  5.00000000E-01  2.50000000E-01
                       5.00000000E-01 -3.75000000E-01  0.00000000E+00
                      -3.75000000E-01 -3.75000000E-01  1.25000000E-01
                      -2.50000000E-01 -3.75000000E-01  2.50000000E-01
                      -1.25000000E-01 -3.75000000E-01  3.75000000E-01
                       3.75000000E-01 -2.50000000E-01  0.00000000E+00
                       5.00000000E-01 -2.50000000E-01  1.25000000E-01
                      -3.75000000E-01 -2.50000000E-01  2.50000000E-01
                      -2.50000000E-01 -2.50000000E-01  3.75000000E-01
                      -1.25000000E-01 -2.50000000E-01  5.00000000E-01
                       2.50000000E-01 -1.25000000E-01  0.00000000E+00
                       3.75000000E-01 -1.25000000E-01  1.25000000E-01
                       5.00000000E-01 -1.25000000E-01  2.50000000E-01
                      -3.75000000E-01 -1.25000000E-01  3.75000000E-01
                      -2.50000000E-01 -1.25000000E-01  5.00000000E-01
                      -1.25000000E-01 -1.25000000E-01 -3.75000000E-01
                      -1.25000000E-01  0.00000000E+00  0.00000000E+00
                      -1.25000000E-01  1.25000000E-01  1.25000000E-01
                      -2.50000000E-01  2.50000000E-01  1.25000000E-01
                      -1.25000000E-01  2.50000000E-01  2.50000000E-01
                      -3.75000000E-01  3.75000000E-01  1.25000000E-01
                      -2.50000000E-01  3.75000000E-01  2.50000000E-01
                      -1.25000000E-01  3.75000000E-01  3.75000000E-01
                       5.00000000E-01  5.00000000E-01  1.25000000E-01
                      -3.75000000E-01  5.00000000E-01  2.50000000E-01
                      -2.50000000E-01  5.00000000E-01  3.75000000E-01
                      -1.25000000E-01  5.00000000E-01  5.00000000E-01
                       3.75000000E-01 -3.75000000E-01  1.25000000E-01
                       5.00000000E-01 -3.75000000E-01  2.50000000E-01
                      -3.75000000E-01 -3.75000000E-01  3.75000000E-01
                      -2.50000000E-01 -3.75000000E-01  5.00000000E-01
                      -1.25000000E-01 -3.75000000E-01 -3.75000000E-01
                       outvar_i_n : Printing only first  50 k-points.
         kptrlatt        4   -4    4     -4    4    4     -4   -4    4
          kptrlen      4.53534272E+01
P           mkmem          10
            natom           2
            nband           6
            ngfft          32      32      32
             nkpt         128
             nsym           1
            ntime          15
           ntypat           1
              occ      2.000000  2.000000  2.000000  2.000000  0.000000  0.000000
          optcell           2
            rprim      5.0000000000E-01  5.0000000000E-01  0.0000000000E+00
                       0.0000000000E+00  5.0000000000E-01  5.0000000000E-01
                       5.0000000000E-01  0.0000000000E+00  5.0000000000E-01
           shiftk      5.00000000E-01  5.00000000E-01  5.00000000E-01
          spgroup           1
           tolmxf      1.00000000E-08
           tolvrs      1.00000000E-10
            typat      1  1
              wtk        0.00781    0.00781    0.00781    0.00781    0.00781    0.00781
                         0.00781    0.00781    0.00781    0.00781    0.00781    0.00781
[...]
  -0.2500  0.5000  0.3750    1  1.81276E-16 kpt; spin; max resid(k); each band:
  5.25E-22 9.64E-22 7.79E-22 7.95E-22 4.67E-19 1.81E-16
  -0.1250  0.5000  0.5000    1  2.63868E-18 kpt; spin; max resid(k); each band:
  8.12E-21 1.46E-22 1.60E-21 6.51E-21 1.66E-19 2.64E-18
   0.3750 -0.3750  0.1250    1  1.80728E-16 kpt; spin; max resid(k); each band:
  5.25E-22 9.57E-22 7.81E-22 8.27E-22 4.67E-19 1.81E-16
   0.5000 -0.3750  0.2500    1  1.81797E-16 kpt; spin; max resid(k); each band:
  5.27E-22 9.53E-22 7.81E-22 8.16E-22 4.60E-19 1.82E-16
  -0.3750 -0.3750  0.3750    1  1.33509E-12 kpt; spin; max resid(k); each band:
  2.95E-22 1.11E-21 4.74E-22 1.04E-22 9.17E-21 1.34E-12
  -0.2500 -0.3750  0.5000    1  2.27930E-16 kpt; spin; max resid(k); each band:
  3.67E-20 2.55E-20 1.20E-19 8.00E-20 9.00E-17 2.28E-16
  -0.1250 -0.3750 -0.3750    1  2.00381E-19 kpt; spin; max resid(k); each band:
  2.86E-22 2.55E-21 1.27E-21 1.41E-21 1.16E-19 2.00E-19
 outwf : prtvol=0 or 1, do not print more k-points.

   outwf: writing wavefunctions to: opto_WFK with iomode: IO_MODE_FORTRAN_MASTER
 prteigrs : about to open file opto_EIG
 Fermi (or HOMO) energy (hartree) =   0.14282   Average Vxc (hartree)=  -0.33848
 Eigenvalues (hartree) for nkpt= 128  k points:
 kpt#   1, nband=  6, wtk=  0.00781, kpt= -0.1250 -0.2500  0.0000 (reduced coord)
  -0.25443    0.03516    0.10574    0.10806    0.23187    0.28596
 kpt#   2, nband=  6, wtk=  0.00781, kpt= -0.2500 -0.1250  0.0000 (reduced coord)
  -0.25443    0.03516    0.10574    0.10806    0.23187    0.28596
 kpt#   3, nband=  6, wtk=  0.00781, kpt= -0.1250 -0.1250  0.1250 (reduced coord)
  -0.25443    0.03516    0.10574    0.10806    0.23187    0.28596
 kpt#   4, nband=  6, wtk=  0.00781, kpt= -0.1250  0.5000  0.0000 (reduced coord)
  -0.19429   -0.09171    0.07052    0.09679    0.23247    0.28131
 kpt#   5, nband=  6, wtk=  0.00781, kpt= -0.2500 -0.3750  0.0000 (reduced coord)
  -0.21657   -0.02770    0.05697    0.07362    0.20349    0.25988
 kpt#   6, nband=  6, wtk=  0.00781, kpt= -0.1250 -0.3750  0.1250 (reduced coord)
  -0.20131   -0.05975    0.03338    0.08371    0.25836    0.28283
 kpt#   7, nband=  6, wtk=  0.00781, kpt= -0.3750 -0.2500  0.0000 (reduced coord)
  -0.21657   -0.02770    0.05697    0.07362    0.20349    0.25988
 kpt#   8, nband=  6, wtk=  0.00781, kpt= -0.2500 -0.2500  0.1250 (reduced coord)
  -0.21657   -0.02770    0.05697    0.07362    0.20349    0.25988
 kpt#   9, nband=  6, wtk=  0.00781, kpt= -0.1250 -0.2500  0.2500 (reduced coord)
  -0.20131   -0.05975    0.03338    0.08371    0.25836    0.28283
 kpt#  10, nband=  6, wtk=  0.00781, kpt=  0.5000 -0.1250  0.0000 (reduced coord)
  -0.19429   -0.09171    0.07052    0.09679    0.23247    0.28131
 kpt#  11, nband=  6, wtk=  0.00781, kpt= -0.3750 -0.1250  0.1250 (reduced coord)
  -0.20131   -0.05975    0.03338    0.08371    0.25836    0.28283
 kpt#  12, nband=  6, wtk=  0.00781, kpt= -0.2500 -0.1250  0.2500 (reduced coord)
  -0.20131   -0.05975    0.03338    0.08371    0.25836    0.28283
 kpt#  13, nband=  6, wtk=  0.00781, kpt= -0.1250 -0.1250  0.3750 (reduced coord)
  -0.19429   -0.09171    0.07052    0.09679    0.23247    0.28131
 kpt#  14, nband=  6, wtk=  0.00781, kpt= -0.1250  0.2500  0.0000 (reduced coord)
  -0.23612   -0.01540    0.06976    0.12515    0.25043    0.28753
 kpt#  15, nband=  6, wtk=  0.00781, kpt= -0.2500  0.3750  0.0000 (reduced coord)
  -0.17609   -0.08862    0.00935    0.08513    0.22131    0.35173
 kpt#  16, nband=  6, wtk=  0.00781, kpt= -0.1250  0.3750  0.1250 (reduced coord)
  -0.20131   -0.05975    0.03338    0.08371    0.25836    0.28283
 kpt#  17, nband=  6, wtk=  0.00781, kpt= -0.3750  0.5000  0.0000 (reduced coord)
  -0.16252   -0.09618    0.02963    0.05646    0.18738    0.22614
 kpt#  18, nband=  6, wtk=  0.00781, kpt= -0.2500  0.5000  0.1250 (reduced coord)
  -0.15637   -0.09975    0.00722    0.04678    0.24119    0.31020
 kpt#  19, nband=  6, wtk=  0.00781, kpt= -0.1250  0.5000  0.2500 (reduced coord)
  -0.15637   -0.09975    0.00722    0.04678    0.24119    0.31020
 kpt#  20, nband=  6, wtk=  0.00781, kpt=  0.5000 -0.3750  0.0000 (reduced coord)
  -0.16252   -0.09618    0.02963    0.05646    0.18738    0.22614
 kpt#  21, nband=  6, wtk=  0.00781, kpt= -0.3750 -0.3750  0.1250 (reduced coord)
  -0.16252   -0.09618    0.02963    0.05646    0.18738    0.22614
 kpt#  22, nband=  6, wtk=  0.00781, kpt= -0.2500 -0.3750  0.2500 (reduced coord)
  -0.15637   -0.09975    0.00722    0.04678    0.24119    0.31020
 kpt#  23, nband=  6, wtk=  0.00781, kpt= -0.1250 -0.3750  0.3750 (reduced coord)
  -0.15637   -0.09975    0.00722    0.04678    0.24119    0.31020
 kpt#  24, nband=  6, wtk=  0.00781, kpt=  0.3750 -0.2500  0.0000 (reduced coord)
  -0.17609   -0.08862    0.00935    0.08513    0.22131    0.35173
 kpt#  25, nband=  6, wtk=  0.00781, kpt=  0.5000 -0.2500  0.1250 (reduced coord)
  -0.15637   -0.09975    0.00722    0.04678    0.24119    0.31020
 kpt#  26, nband=  6, wtk=  0.00781, kpt= -0.3750 -0.2500  0.2500 (reduced coord)
  -0.15637   -0.09975    0.00722    0.04678    0.24119    0.31020
 kpt#  27, nband=  6, wtk=  0.00781, kpt= -0.2500 -0.2500  0.3750 (reduced coord)
  -0.17609   -0.08862    0.00935    0.08513    0.22131    0.35173
 kpt#  28, nband=  6, wtk=  0.00781, kpt= -0.1250 -0.2500  0.5000 (reduced coord)
  -0.20131   -0.05975    0.03338    0.08371    0.25836    0.28283
 kpt#  29, nband=  6, wtk=  0.00781, kpt=  0.2500 -0.1250  0.0000 (reduced coord)
  -0.23612   -0.01540    0.06976    0.12515    0.25043    0.28753
 kpt#  30, nband=  6, wtk=  0.00781, kpt=  0.3750 -0.1250  0.1250 (reduced coord)
  -0.20131   -0.05975    0.03338    0.08371    0.25836    0.28283
 kpt#  31, nband=  6, wtk=  0.00781, kpt=  0.5000 -0.1250  0.2500 (reduced coord)
  -0.15637   -0.09975    0.00722    0.04678    0.24119    0.31020
 kpt#  32, nband=  6, wtk=  0.00781, kpt= -0.3750 -0.1250  0.3750 (reduced coord)
  -0.15637   -0.09975    0.00722    0.04678    0.24119    0.31020
 kpt#  33, nband=  6, wtk=  0.00781, kpt= -0.2500 -0.1250  0.5000 (reduced coord)
  -0.20131   -0.05975    0.03338    0.08371    0.25836    0.28283
 kpt#  34, nband=  6, wtk=  0.00781, kpt= -0.1250 -0.1250 -0.3750 (reduced coord)
  -0.23612   -0.01540    0.06976    0.12515    0.25043    0.28753
 kpt#  35, nband=  6, wtk=  0.00781, kpt= -0.1250  0.0000  0.0000 (reduced coord)
  -0.27381    0.09459    0.14282    0.14282    0.24255    0.26217
 kpt#  36, nband=  6, wtk=  0.00781, kpt= -0.1250  0.1250  0.1250 (reduced coord)
  -0.25443    0.03516    0.10574    0.10806    0.23187    0.28596
 kpt#  37, nband=  6, wtk=  0.00781, kpt= -0.2500  0.2500  0.1250 (reduced coord)
  -0.20131   -0.05975    0.03338    0.08371    0.25836    0.28283
 kpt#  38, nband=  6, wtk=  0.00781, kpt= -0.1250  0.2500  0.2500 (reduced coord)
  -0.21657   -0.02770    0.05697    0.07362    0.20349    0.25988
 kpt#  39, nband=  6, wtk=  0.00781, kpt= -0.3750  0.3750  0.1250 (reduced coord)
  -0.15637   -0.09975    0.00722    0.04678    0.24119    0.31020
 kpt#  40, nband=  6, wtk=  0.00781, kpt= -0.2500  0.3750  0.2500 (reduced coord)
  -0.15637   -0.09975    0.00722    0.04678    0.24119    0.31020
 kpt#  41, nband=  6, wtk=  0.00781, kpt= -0.1250  0.3750  0.3750 (reduced coord)
  -0.16252   -0.09618    0.02963    0.05646    0.18738    0.22614
 kpt#  42, nband=  6, wtk=  0.00781, kpt=  0.5000  0.5000  0.1250 (reduced coord)
  -0.16252   -0.09618    0.02963    0.05646    0.18738    0.22614
 kpt#  43, nband=  6, wtk=  0.00781, kpt= -0.3750  0.5000  0.2500 (reduced coord)
  -0.15637   -0.09975    0.00722    0.04678    0.24119    0.31020
 kpt#  44, nband=  6, wtk=  0.00781, kpt= -0.2500  0.5000  0.3750 (reduced coord)
  -0.15637   -0.09975    0.00722    0.04678    0.24119    0.31020
 kpt#  45, nband=  6, wtk=  0.00781, kpt= -0.1250  0.5000  0.5000 (reduced coord)
  -0.16252   -0.09618    0.02963    0.05646    0.18738    0.22614
 kpt#  46, nband=  6, wtk=  0.00781, kpt=  0.3750 -0.3750  0.1250 (reduced coord)
  -0.15637   -0.09975    0.00722    0.04678    0.24119    0.31020
 kpt#  47, nband=  6, wtk=  0.00781, kpt=  0.5000 -0.3750  0.2500 (reduced coord)
  -0.15637   -0.09975    0.00722    0.04678    0.24119    0.31020
 kpt#  48, nband=  6, wtk=  0.00781, kpt= -0.3750 -0.3750  0.3750 (reduced coord)
  -0.17609   -0.08862    0.00935    0.08513    0.22131    0.35173
 kpt#  49, nband=  6, wtk=  0.00781, kpt= -0.2500 -0.3750  0.5000 (reduced coord)
  -0.20131   -0.05975    0.03338    0.08371    0.25836    0.28283
 kpt#  50, nband=  6, wtk=  0.00781, kpt= -0.1250 -0.3750 -0.3750 (reduced coord)
  -0.21657   -0.02770    0.05697    0.07362    0.20349    0.25988
 prteigrs : prtvol=0 or 1, do not print more k-points.

 Total charge density [el/Bohr^3]
      Maximum=    8.3683E-02  at reduced coord.    0.1563    0.1563    0.1563
 Next maximum=    8.3683E-02  at reduced coord.    0.0938    0.0938    0.0938
      Minimum=    1.4866E-03  at reduced coord.    0.0000    0.0000    0.0000
 Next minimum=    1.4866E-03  at reduced coord.    0.2500    0.2500    0.2500
   Integrated=    8.0000E+00

 Cartesian components of stress tensor (hartree/bohr^3)
  sigma(1 1)= -3.99971709E-11  sigma(3 2)= -4.13075401E-13
  sigma(2 2)= -4.00626368E-11  sigma(3 1)=  5.14410125E-13
  sigma(3 3)= -4.00366090E-11  sigma(2 1)= -4.03198523E-13

-Cartesian components of stress tensor (GPa)         [Pressure=  1.1778E-06 GPa]
- sigma(1 1)= -1.17675720E-06  sigma(3 2)= -1.21530958E-08
- sigma(2 2)= -1.17868327E-06  sigma(3 1)=  1.51344658E-08
- sigma(3 3)= -1.17791751E-06  sigma(2 1)= -1.18625081E-08

== END DATASET(S) ==============================================================

 -outvars: echo values of variables after computation  --------

 These variables are accessible in NetCDF format (opto_OUT.nc)

            acell      7.3076524878E+00  7.3076524882E+00  7.3076524889E+00 Bohr
              amu      2.80855000E+01
          dilatmx      1.05000000E+00
             ecut      1.60000000E+01 Hartree
           ecutsm      5.00000000E-01 Hartree
           etotal     -8.4624366662E+00
            fcart     -5.8725568062E-11 -1.0114721796E-11 -1.6888836119E-11
                       5.8725568062E-11  1.0114721796E-11  1.6888836119E-11
-          fftalg         312
           ionmov           2
              ixc          11
              kpt     -1.25000000E-01 -2.50000000E-01  0.00000000E+00
                      -2.50000000E-01 -1.25000000E-01  0.00000000E+00
                      -1.25000000E-01 -1.25000000E-01  1.25000000E-01
                      -1.25000000E-01  5.00000000E-01  0.00000000E+00
                      -2.50000000E-01 -3.75000000E-01  0.00000000E+00
                      -1.25000000E-01 -3.75000000E-01  1.25000000E-01
                      -3.75000000E-01 -2.50000000E-01  0.00000000E+00
                      -2.50000000E-01 -2.50000000E-01  1.25000000E-01
                      -1.25000000E-01 -2.50000000E-01  2.50000000E-01
                       5.00000000E-01 -1.25000000E-01  0.00000000E+00
                      -3.75000000E-01 -1.25000000E-01  1.25000000E-01
                      -2.50000000E-01 -1.25000000E-01  2.50000000E-01
                      -1.25000000E-01 -1.25000000E-01  3.75000000E-01
                      -1.25000000E-01  2.50000000E-01  0.00000000E+00
                      -2.50000000E-01  3.75000000E-01  0.00000000E+00
                      -1.25000000E-01  3.75000000E-01  1.25000000E-01
                      -3.75000000E-01  5.00000000E-01  0.00000000E+00
                      -2.50000000E-01  5.00000000E-01  1.25000000E-01
                      -1.25000000E-01  5.00000000E-01  2.50000000E-01
                       5.00000000E-01 -3.75000000E-01  0.00000000E+00
                      -3.75000000E-01 -3.75000000E-01  1.25000000E-01
                      -2.50000000E-01 -3.75000000E-01  2.50000000E-01
                      -1.25000000E-01 -3.75000000E-01  3.75000000E-01
                       3.75000000E-01 -2.50000000E-01  0.00000000E+00
                       5.00000000E-01 -2.50000000E-01  1.25000000E-01
                      -3.75000000E-01 -2.50000000E-01  2.50000000E-01
                      -2.50000000E-01 -2.50000000E-01  3.75000000E-01
                      -1.25000000E-01 -2.50000000E-01  5.00000000E-01
                       2.50000000E-01 -1.25000000E-01  0.00000000E+00
                       3.75000000E-01 -1.25000000E-01  1.25000000E-01
                       5.00000000E-01 -1.25000000E-01  2.50000000E-01
                      -3.75000000E-01 -1.25000000E-01  3.75000000E-01
                      -2.50000000E-01 -1.25000000E-01  5.00000000E-01
                      -1.25000000E-01 -1.25000000E-01 -3.75000000E-01
                      -1.25000000E-01  0.00000000E+00  0.00000000E+00
                      -1.25000000E-01  1.25000000E-01  1.25000000E-01
                      -2.50000000E-01  2.50000000E-01  1.25000000E-01
                      -1.25000000E-01  2.50000000E-01  2.50000000E-01
                      -3.75000000E-01  3.75000000E-01  1.25000000E-01
                      -2.50000000E-01  3.75000000E-01  2.50000000E-01
                      -1.25000000E-01  3.75000000E-01  3.75000000E-01
                       5.00000000E-01  5.00000000E-01  1.25000000E-01
                      -3.75000000E-01  5.00000000E-01  2.50000000E-01
                      -2.50000000E-01  5.00000000E-01  3.75000000E-01
                      -1.25000000E-01  5.00000000E-01  5.00000000E-01
                       3.75000000E-01 -3.75000000E-01  1.25000000E-01
                       5.00000000E-01 -3.75000000E-01  2.50000000E-01
                      -3.75000000E-01 -3.75000000E-01  3.75000000E-01
                      -2.50000000E-01 -3.75000000E-01  5.00000000E-01
                      -1.25000000E-01 -3.75000000E-01 -3.75000000E-01
                       outvar_i_n : Printing only first  50 k-points.
         kptrlatt        4   -4    4     -4    4    4     -4   -4    4
          kptrlen      4.53534272E+01
P           mkmem          10
            natom           2
            nband           6
            ngfft          32      32      32
             nkpt         128
             nsym           1
            ntime          15
           ntypat           1
              occ      2.000000  2.000000  2.000000  2.000000  0.000000  0.000000
          optcell           2
            rprim      7.0710678120E-01  7.0710678117E-01  6.9650239756E-11
                       3.1527828871E-11  7.0710678117E-01  7.0710678120E-01
                       7.0710678119E-01 -2.1777182160E-11  7.0710678119E-01
           shiftk      5.00000000E-01  5.00000000E-01  5.00000000E-01
          spgroup           1
           strten     -3.9997170940E-11 -4.0062636802E-11 -4.0036609011E-11
                      -4.1307540147E-13  5.1441012505E-13 -4.0319852329E-13
           tolmxf      1.00000000E-08
           tolvrs      1.00000000E-10
            typat      1  1
              wtk        0.00781    0.00781    0.00781    0.00781    0.00781    0.00781
                         0.00781    0.00781    0.00781    0.00781    0.00781    0.00781
                         0.00781    0.00781    0.00781    0.00781    0.00781    0.00781
                         0.00781    0.00781    0.00781    0.00781    0.00781    0.00781
                         0.00781    0.00781    0.00781    0.00781    0.00781    0.00781
                         0.00781    0.00781    0.00781    0.00781    0.00781    0.00781
                         0.00781    0.00781    0.00781    0.00781    0.00781    0.00781
                         0.00781    0.00781    0.00781    0.00781    0.00781    0.00781
                         0.00781    0.00781
                       outvars : Printing only first  50 k-points.
           xangst      1.1638012194E-10  8.8647964307E-11 -3.2058171592E-12
                       1.3672062155E+00  1.3672062153E+00  1.3672062157E+00
            xcart      2.1992655779E-10  1.6752037478E-10 -6.0581164630E-12
                       2.5836453144E+00  2.5836453142E+00  2.5836453148E+00
             xred      3.8076535396E-11 -5.6571522372E-12  4.4847551496E-12
                       2.4999999996E-01  2.5000000001E-01  2.5000000000E-01
            znucl       14.00000

 Suggested references for the acknowledgment of ABINIT usage.

 Calculation completed.
.Delivered   0 WARNINGs and   9 COMMENTs to log file.

--- !FinalSummary
program: abinit
version: 8.11.13
start_datetime: Wed Jan 22 17:35:46 2020
end_datetime: Wed Jan 22 17:36:58 2020
overall_cpu_time:         832.0
overall_wall_time:        1003.4
exit_requested_by_user: no
timelimit: 0
pseudos:
    Si  : 45c393525680abc7b25445b8ec62bf83
usepaw: 0
mpi_procs: 14
omp_threads: 1
num_warnings: 0
num_comments: 9
...