.Version 8.11.13 of ABINIT

 ABINIT is a project of the Universite Catholique de Louvain,
 Corning Inc. and other collaborators, see ~abinit/doc/developers/contributors.txt .
 acknowledgments of the ABINIT effort.

.Starting date : Wed 22 Jan 2020.
- ( at 17h35 )

- input  file    -> opt.in
- output file    -> opt.out
- root for input  files -> opti
- root for output files -> opto

 Symmetries : space group P1 (#  1); Bravais aP (primitive triclinic)
     intxc =       0    ionmov =       2      iscf =       7    lmnmax =       6
     lnmax =       6     mgfft =      32  mpssoang =       3    mqgrid =    3001
     natom =       2  nloc_mem =       1    nspden =       1   nspinor =       1
    nsppol =       1      nsym =       1    n1xccc =    2501    ntypat =       1
    occopt =       1   xclevel =       2
-    mband =           6        mffmem =           1         mkmem =          10
       mpw =        1300          nfft =       32768          nkpt =         128
  Rough estimation (10% accuracy) of disk space for files :

------------- Echo of variables that govern the present computation ------------
-
- outvars: echo of selected default values
-   iomode0 =  0 , fftalg0 =312 , wfoptalg0 =  0
-
- outvars: echo of global parameters not present in the input file
-  max_nthreads =    0
-
 -outvars: echo values of preprocessed input variables --------
            acell      1.1338356797E+01  1.1338356797E+01  1.1338356797E+01 Bohr
              amu      2.80855000E+01
          dilatmx      1.05000000E+00
             ecut      1.60000000E+01 Hartree
           ecutsm      5.00000000E-01 Hartree
-          fftalg         312
           ionmov           2
              ixc          11
              kpt     -1.25000000E-01 -2.50000000E-01  0.00000000E+00
                      -2.50000000E-01 -1.25000000E-01  0.00000000E+00
                      -1.25000000E-01 -1.25000000E-01  1.25000000E-01
                      -1.25000000E-01  5.00000000E-01  0.00000000E+00
                      -2.50000000E-01 -3.75000000E-01  0.00000000E+00
                      -1.25000000E-01 -3.75000000E-01  1.25000000E-01
                      -3.75000000E-01 -2.50000000E-01  0.00000000E+00
                      -2.50000000E-01 -2.50000000E-01  1.25000000E-01
                      -1.25000000E-01 -2.50000000E-01  2.50000000E-01
                       5.00000000E-01 -1.25000000E-01  0.00000000E+00
                      -3.75000000E-01 -1.25000000E-01  1.25000000E-01
                      -2.50000000E-01 -1.25000000E-01  2.50000000E-01
                      -1.25000000E-01 -1.25000000E-01  3.75000000E-01
                      -1.25000000E-01  2.50000000E-01  0.00000000E+00
                      -2.50000000E-01  3.75000000E-01  0.00000000E+00
                      -1.25000000E-01  3.75000000E-01  1.25000000E-01
                      -3.75000000E-01  5.00000000E-01  0.00000000E+00
                      -2.50000000E-01  5.00000000E-01  1.25000000E-01
                      -1.25000000E-01  5.00000000E-01  2.50000000E-01
                       5.00000000E-01 -3.75000000E-01  0.00000000E+00
                      -3.75000000E-01 -3.75000000E-01  1.25000000E-01
                      -2.50000000E-01 -3.75000000E-01  2.50000000E-01
                      -1.25000000E-01 -3.75000000E-01  3.75000000E-01
                       3.75000000E-01 -2.50000000E-01  0.00000000E+00
                       5.00000000E-01 -2.50000000E-01  1.25000000E-01
                      -3.75000000E-01 -2.50000000E-01  2.50000000E-01
                      -2.50000000E-01 -2.50000000E-01  3.75000000E-01
                      -1.25000000E-01 -2.50000000E-01  5.00000000E-01
                       2.50000000E-01 -1.25000000E-01  0.00000000E+00
                       3.75000000E-01 -1.25000000E-01  1.25000000E-01
                       5.00000000E-01 -1.25000000E-01  2.50000000E-01
                      -3.75000000E-01 -1.25000000E-01  3.75000000E-01
                      -2.50000000E-01 -1.25000000E-01  5.00000000E-01
                      -1.25000000E-01 -1.25000000E-01 -3.75000000E-01
                      -1.25000000E-01  0.00000000E+00  0.00000000E+00
                      -1.25000000E-01  1.25000000E-01  1.25000000E-01
                      -2.50000000E-01  2.50000000E-01  1.25000000E-01
                      -1.25000000E-01  2.50000000E-01  2.50000000E-01
                      -3.75000000E-01  3.75000000E-01  1.25000000E-01
                      -2.50000000E-01  3.75000000E-01  2.50000000E-01
                      -1.25000000E-01  3.75000000E-01  3.75000000E-01
                       5.00000000E-01  5.00000000E-01  1.25000000E-01
                      -3.75000000E-01  5.00000000E-01  2.50000000E-01
                      -2.50000000E-01  5.00000000E-01  3.75000000E-01
                      -1.25000000E-01  5.00000000E-01  5.00000000E-01
                       3.75000000E-01 -3.75000000E-01  1.25000000E-01
                       5.00000000E-01 -3.75000000E-01  2.50000000E-01
                      -3.75000000E-01 -3.75000000E-01  3.75000000E-01
                      -2.50000000E-01 -3.75000000E-01  5.00000000E-01
                      -1.25000000E-01 -3.75000000E-01 -3.75000000E-01
                       outvar_i_n : Printing only first  50 k-points.
         kptrlatt        4   -4    4     -4    4    4     -4   -4    4
          kptrlen      4.53534272E+01
P           mkmem          10
            natom           2
            nband           6
            ngfft          32      32      32
             nkpt         128
             nsym           1
            ntime          15
           ntypat           1
              occ      2.000000  2.000000  2.000000  2.000000  0.000000  0.000000
          optcell           2
            rprim      5.0000000000E-01  5.0000000000E-01  0.0000000000E+00
                       0.0000000000E+00  5.0000000000E-01  5.0000000000E-01
                       5.0000000000E-01  0.0000000000E+00  5.0000000000E-01
           shiftk      5.00000000E-01  5.00000000E-01  5.00000000E-01
          spgroup           1
           tolmxf      1.00000000E-08
           tolvrs      1.00000000E-10
            typat      1  1
              wtk        0.00781    0.00781    0.00781    0.00781    0.00781    0.00781
                         0.00781    0.00781    0.00781    0.00781    0.00781    0.00781
                         0.00781    0.00781    0.00781    0.00781    0.00781    0.00781
                         0.00781    0.00781    0.00781    0.00781    0.00781    0.00781
                         0.00781    0.00781    0.00781    0.00781    0.00781    0.00781
                         0.00781    0.00781    0.00781    0.00781    0.00781    0.00781
                         0.00781    0.00781    0.00781    0.00781    0.00781    0.00781
                         0.00781    0.00781    0.00781    0.00781    0.00781    0.00781
                         0.00781    0.00781
                       outvars : Printing only first  50 k-points.
           xangst      0.0000000000E+00  0.0000000000E+00  0.0000000000E+00
                       1.5000000000E+00  1.5000000000E+00  1.5000000000E+00
            xcart      0.0000000000E+00  0.0000000000E+00  0.0000000000E+00
                       2.8345891993E+00  2.8345891993E+00  2.8345891993E+00
             xred      0.0000000000E+00  0.0000000000E+00  0.0000000000E+00
                       2.5000000000E-01  2.5000000000E-01  2.5000000000E-01
            znucl       14.00000

 chkinp: Checking input parameters for consistency.

== DATASET  1 ==================================================================
-   nproc =   14

 Real(R)+Recip(G) space primitive vectors, cartesian coordinates (Bohr,Bohr^-1):
 R(1)=  5.6691784  5.6691784  0.0000000  G(1)=  0.0881962  0.0881962 -0.0881962
 R(2)=  0.0000000  5.6691784  5.6691784  G(2)= -0.0881962  0.0881962  0.0881962
 R(3)=  5.6691784  0.0000000  5.6691784  G(3)=  0.0881962 -0.0881962  0.0881962
 Unit cell volume ucvol=  3.6441007E+02 bohr^3
 Angles (23,13,12)=  6.00000000E+01  6.00000000E+01  6.00000000E+01 degrees

 getcut: wavevector=  0.0000  0.0000  0.0000  ngfft=  32  32  32
         ecut(hartree)=     17.640   => boxcut(ratio)=   2.11106

--- Pseudopotential description ------------------------------------------------
- pspini: atom type   1  psp file is /CECI/home/ucl/naps/jovbever/.PsP/Si/Si.psp8
- pspatm: opening atomic psp file    /CECI/home/ucl/naps/jovbever/.PsP/Si/Si.psp8
- Si    ONCVPSP-3.2.3.1  r_core=   1.60303   1.72197   1.91712
- 14.00000   4.00000    170510                znucl, zion, pspdat
    8   11    2    4       600   0.00000      pspcod,pspxc,lmax,lloc,mmax,r2well
    5.99000000000000    4.00000000000000    0.00000000000000   rchrg,fchrg,qchrg
     nproj     2     2     2
     extension_switch     1
  pspatm : epsatm=    9.34321699
         --- l  ekb(1:nproj) -->
             0    5.168965    0.829883
             1    2.571282    0.578307
             2   -2.427311   -0.488097
 pspatm: atomic psp has been read  and splines computed

   1.49491472E+02                                ecore*ucvol(ha*bohr**3)

_setup2: Arith. and geom. avg. npw (full set) are    1288.813    1288.795

=== [ionmov= 2] Broyden-Fletcher-Goldfard-Shanno method (forces)

--- Iteration: ( 1/15) Internal Cycle: (1/1)

---SELF-CONSISTENT-FIELD CONVERGENCE--------------------------------------------

     iter   Etot(hartree)      deltaE(h)  residm     vres2
 ETOT  1  -8.4341224000032    -8.434E+00 1.555E-02 1.991E+00
 ETOT  2  -8.4368475650596    -2.725E-03 1.749E-03 7.310E-02
 ETOT  3  -8.4368606274724    -1.306E-05 3.550E-04 2.239E-03
 ETOT  4  -8.4368608444548    -2.170E-07 3.803E-04 3.085E-04
 ETOT  5  -8.4368608804827    -3.603E-08 6.285E-05 3.234E-05
 ETOT  6  -8.4368608846474    -4.165E-09 1.001E-04 1.303E-06
 ETOT  7  -8.4368608848345    -1.871E-10 3.593E-05 2.165E-08
 ETOT  8  -8.4368608848370    -2.487E-12 5.318E-05 1.912E-10
 ETOT  9  -8.4368608848370    -4.974E-14 1.730E-05 3.873E-12

 At SCF step    9       vres2   =  3.87E-12 < tolvrs=  1.00E-10 =>converged.

 Cartesian components of stress tensor (hartree/bohr^3)
  sigma(1 1)=  4.44301728E-04  sigma(3 2)= -5.03526243E-12
  sigma(2 2)=  4.44301730E-04  sigma(3 1)= -5.32222854E-12
  sigma(3 3)=  4.44301728E-04  sigma(2 1)=  1.07808156E-12

 Integrated electronic density in atomic spheres:
 Atom  Sphere_radius  Integrated_density
    1        2.00000          1.60229892
    2        2.00000          1.60229895

---OUTPUT-----------------------------------------------------------------------

 Cartesian coordinates (xcart) [bohr]
  0.00000000000000E+00  0.00000000000000E+00  0.00000000000000E+00
  2.83458919932846E+00  2.83458919932846E+00  2.83458919932846E+00
 Reduced coordinates (xred)
  0.00000000000000E+00  0.00000000000000E+00  0.00000000000000E+00
  2.50000000000000E-01  2.50000000000000E-01  2.50000000000000E-01
 Cartesian forces (fcart) [Ha/bohr]; max,rms= 1.46896E-10 1.16293E-10 (free atoms)
  5.70512601368986E-11  1.25453421415655E-10 -1.46896458707914E-10
 -5.70512601368986E-11 -1.25453421415655E-10  1.46896458707914E-10
 Reduced forces (fred)
 -1.03465159831150E-09  1.21564403818871E-10  5.09348458961842E-10
  1.03465159831150E-09 -1.21564403818871E-10 -5.09348458961842E-10
 Scale of Primitive Cell (acell) [bohr]
  1.13383567973139E+01  1.13383567973139E+01  1.13383567973139E+01
 Real space primitive translations (rprimd) [bohr]
  5.66917839865693E+00  5.66917839865693E+00  0.00000000000000E+00
  0.00000000000000E+00  5.66917839865693E+00  5.66917839865693E+00
  5.66917839865693E+00  0.00000000000000E+00  5.66917839865693E+00
 Unitary Cell Volume (ucvol) [Bohr^3]=  3.64410067486860E+02
 Angles (23,13,12)= [degrees]
  6.00000000000000E+01  6.00000000000000E+01  6.00000000000000E+01
 Lengths [Bohr]
  8.01742897889321E+00  8.01742897889321E+00  8.01742897889321E+00
 Stress tensor in cartesian coordinates (strten) [Ha/bohr^3]
  4.44301727511222E-04  1.07808155610832E-12 -5.32222854447817E-12
  1.07808155610832E-12  4.44301729876168E-04 -5.03526242852878E-12
 -5.32222854447817E-12 -5.03526242852878E-12  4.44301728341165E-04
 Total energy (etotal) [Ha]= -8.43686088483702E+00

[...]

 Difference of energy with previous step (new-old):
           Absolute (Ha)=-6.21371E-03
           Relative     =-7.36225E-04

[...]

 Difference of energy with previous step (new-old):
           Absolute (Ha)=-8.85461E-11
           Relative     =-1.04634E-11

--- Iteration: ( 9/15) Internal Cycle: (1/1)

---SELF-CONSISTENT-FIELD CONVERGENCE--------------------------------------------

     iter   Etot(hartree)      deltaE(h)  residm     vres2
 ETOT  1  -8.4624366662258    -8.462E+00 1.592E-12 1.224E-12

 At SCF step    1       vres2   =  1.22E-12 < tolvrs=  1.00E-10 =>converged.

[...]

 Integrated electronic density in atomic spheres:
 Atom  Sphere_radius  Integrated_density
    1        2.00000          1.76790579
    2        2.00000          1.76790579

---OUTPUT-----------------------------------------------------------------------

 Cartesian coordinates (xcart) [bohr]
  2.19926557785056E-10  1.67520374777324E-10 -6.05811646297072E-12
  2.58364531439512E+00  2.58364531416308E+00  2.58364531476802E+00
 Reduced coordinates (xred)
  3.80765353956284E-11 -5.65715223719504E-12  4.48475514963608E-12
  2.49999999961923E-01  2.50000000005657E-01  2.49999999995515E-01
 Cartesian forces (fcart) [Ha/bohr]; max,rms= 5.87256E-11 3.57595E-11 (free atoms)
 -5.87255680618505E-11 -1.01147217960200E-11 -1.68888361189309E-11
  5.87255680618505E-11  1.01147217960200E-11  1.68888361189309E-11
 Reduced forces (fred)
  3.55717784671912E-10  1.39535231777162E-10  3.90721602173366E-10
 -3.55717784671912E-10 -1.39535231777162E-10 -3.90721602173366E-10
 Scale of Primitive Cell (acell) [bohr]
  7.30765248781843E+00  7.30765248822319E+00  7.30765248890090E+00
 Real space primitive translations (rprimd) [bohr]
  5.16729062878083E+00  5.16729062860148E+00  5.08979747829251E-10
  2.30394417100795E-10  5.16729062888007E+00  5.16729062907466E+00
  5.16729062944896E+00 -1.59140079411337E-10  5.16729062946420E+00
 Unitary Cell Volume (ucvol) [Bohr^3]=  2.75942542620521E+02
 Angles (23,13,12)= [degrees]
  5.99999999988722E+01  5.99999999972351E+01  5.99999999964637E+01
 Lengths [Bohr]
  7.30765248781843E+00  7.30765248822319E+00  7.30765248890090E+00
 Stress tensor in cartesian coordinates (strten) [Ha/bohr^3]
 -3.99971709398594E-11 -4.03198523294146E-13  5.14410125047864E-13
 -4.03198523294146E-13 -4.00626368017576E-11 -4.13075401468459E-13
  5.14410125047864E-13 -4.13075401468459E-13 -4.00366090107240E-11
 Total energy (etotal) [Ha]= -8.46243666622584E+00

 Difference of energy with previous step (new-old):
           Absolute (Ha)= 1.42109E-14
           Relative     = 1.67929E-15

 At Broyd/MD step   9, gradients are converged :
  max grad (force/stress) = 4.0063E-09 < tolmxf= 1.0000E-08 ha/bohr (free atoms)

 ----iterations are completed or convergence reached----

 Mean square residual over all n,k,spin=   14.606E-15; max=  15.921E-13
 reduced coordinates (array xred) for    2 atoms
       0.000000000038     -0.000000000006      0.000000000004
       0.249999999962      0.250000000006      0.249999999996
 rms dE/dt=  3.1553E-10; max dE/dt=  3.9083E-10; dE/dt below (all hartree)
    1       0.000000000356      0.000000000139      0.000000000391
    2      -0.000000000355     -0.000000000140     -0.000000000391

 cartesian coordinates (angstrom) at end:
    1      0.00000000011638     0.00000000008865    -0.00000000000321
    2      1.36720621545824     1.36720621533545     1.36720621565557

 cartesian forces (hartree/bohr) at end:
    1     -0.00000000005873    -0.00000000001011    -0.00000000001689
    2      0.00000000005873     0.00000000001011     0.00000000001689
 frms,max,avg= 3.5759534E-11 5.8725568E-11  -5.080E-14 -1.769E-14  2.963E-14 h/b

 cartesian forces (eV/Angstrom) at end:
    1     -0.00000000301979    -0.00000000052012    -0.00000000086846
    2      0.00000000301979     0.00000000052012     0.00000000086846
 frms,max,avg= 1.8388290E-09 3.0197899E-09  -2.612E-12 -9.098E-13  1.523E-12 e/A
 length scales=  7.307652487818  7.307652488223  7.307652488901 bohr
              =  3.867043144850  3.867043145064  3.867043145422 angstroms
 prteigrs : about to open file opto_EIG
 Fermi (or HOMO) energy (hartree) =   0.14282   Average Vxc (hartree)=  -0.33848
 Eigenvalues (hartree) for nkpt= 128  k points:
 kpt#   1, nband=  6, wtk=  0.00781, kpt= -0.1250 -0.2500  0.0000 (reduced coord)
  -0.25443    0.03516    0.10574    0.10806    0.23187    0.28596
 prteigrs : prtvol=0 or 1, do not print more k-points.

 Components of total free energy (in Hartree) :

    Kinetic energy  =  3.04300281050803E+00
    Hartree energy  =  5.57069274086802E-01
    XC energy       = -3.08031003434646E+00
    Ewald energy    = -8.33984140774626E+00
    PspCore energy  =  5.41748548137012E-01
    Loc. psp. energy= -2.33211650539962E+00
    NL   psp  energy=  1.14801064853467E+00
    >>>>>>>>> Etotal= -8.46243666622584E+00

 Other information on the energy :
    Total energy(eV)= -2.30274612515610E+02 ; Band energy (Ha)=  -2.4607777244E-01

 Cartesian components of stress tensor (hartree/bohr^3)
  sigma(1 1)= -3.99971709E-11  sigma(3 2)= -4.13075401E-13
  sigma(2 2)= -4.00626368E-11  sigma(3 1)=  5.14410125E-13
  sigma(3 3)= -4.00366090E-11  sigma(2 1)= -4.03198523E-13

-Cartesian components of stress tensor (GPa)         [Pressure=  1.1778E-06 GPa]
- sigma(1 1)= -1.17675720E-06  sigma(3 2)= -1.21530958E-08
- sigma(2 2)= -1.17868327E-06  sigma(3 1)=  1.51344658E-08
- sigma(3 3)= -1.17791751E-06  sigma(2 1)= -1.18625081E-08

== END DATASET(S) ==============================================================

 -outvars: echo values of variables after computation  --------
            acell      7.3076524878E+00  7.3076524882E+00  7.3076524889E+00 Bohr
              amu      2.80855000E+01
          dilatmx      1.05000000E+00
             ecut      1.60000000E+01 Hartree
           ecutsm      5.00000000E-01 Hartree
           etotal     -8.4624366662E+00
            fcart     -5.8725568062E-11 -1.0114721796E-11 -1.6888836119E-11
                       5.8725568062E-11  1.0114721796E-11  1.6888836119E-11
-          fftalg         312
           ionmov           2
              ixc          11
              kpt     -1.25000000E-01 -2.50000000E-01  0.00000000E+00
                      -2.50000000E-01 -1.25000000E-01  0.00000000E+00
                      -1.25000000E-01 -1.25000000E-01  1.25000000E-01
                      -1.25000000E-01  5.00000000E-01  0.00000000E+00
                      -2.50000000E-01 -3.75000000E-01  0.00000000E+00
                      -1.25000000E-01 -3.75000000E-01  1.25000000E-01
                      -3.75000000E-01 -2.50000000E-01  0.00000000E+00
                      -2.50000000E-01 -2.50000000E-01  1.25000000E-01
                      -1.25000000E-01 -2.50000000E-01  2.50000000E-01
                       5.00000000E-01 -1.25000000E-01  0.00000000E+00
                      -3.75000000E-01 -1.25000000E-01  1.25000000E-01
                      -2.50000000E-01 -1.25000000E-01  2.50000000E-01
                      -1.25000000E-01 -1.25000000E-01  3.75000000E-01
                      -1.25000000E-01  2.50000000E-01  0.00000000E+00
                      -2.50000000E-01  3.75000000E-01  0.00000000E+00
                      -1.25000000E-01  3.75000000E-01  1.25000000E-01
                      -3.75000000E-01  5.00000000E-01  0.00000000E+00
                      -2.50000000E-01  5.00000000E-01  1.25000000E-01
                      -1.25000000E-01  5.00000000E-01  2.50000000E-01
                       5.00000000E-01 -3.75000000E-01  0.00000000E+00
                      -3.75000000E-01 -3.75000000E-01  1.25000000E-01
                      -2.50000000E-01 -3.75000000E-01  2.50000000E-01
                      -1.25000000E-01 -3.75000000E-01  3.75000000E-01
                       3.75000000E-01 -2.50000000E-01  0.00000000E+00
                       5.00000000E-01 -2.50000000E-01  1.25000000E-01
                      -3.75000000E-01 -2.50000000E-01  2.50000000E-01
                      -2.50000000E-01 -2.50000000E-01  3.75000000E-01
                      -1.25000000E-01 -2.50000000E-01  5.00000000E-01
                       2.50000000E-01 -1.25000000E-01  0.00000000E+00
                       3.75000000E-01 -1.25000000E-01  1.25000000E-01
                       5.00000000E-01 -1.25000000E-01  2.50000000E-01
                      -3.75000000E-01 -1.25000000E-01  3.75000000E-01
                      -2.50000000E-01 -1.25000000E-01  5.00000000E-01
                      -1.25000000E-01 -1.25000000E-01 -3.75000000E-01
                      -1.25000000E-01  0.00000000E+00  0.00000000E+00
                      -1.25000000E-01  1.25000000E-01  1.25000000E-01
                      -2.50000000E-01  2.50000000E-01  1.25000000E-01
                      -1.25000000E-01  2.50000000E-01  2.50000000E-01
                      -3.75000000E-01  3.75000000E-01  1.25000000E-01
                      -2.50000000E-01  3.75000000E-01  2.50000000E-01
                      -1.25000000E-01  3.75000000E-01  3.75000000E-01
                       5.00000000E-01  5.00000000E-01  1.25000000E-01
                      -3.75000000E-01  5.00000000E-01  2.50000000E-01
                      -2.50000000E-01  5.00000000E-01  3.75000000E-01
                      -1.25000000E-01  5.00000000E-01  5.00000000E-01
                       3.75000000E-01 -3.75000000E-01  1.25000000E-01
                       5.00000000E-01 -3.75000000E-01  2.50000000E-01
                      -3.75000000E-01 -3.75000000E-01  3.75000000E-01
                      -2.50000000E-01 -3.75000000E-01  5.00000000E-01
                      -1.25000000E-01 -3.75000000E-01 -3.75000000E-01
                       outvar_i_n : Printing only first  50 k-points.
         kptrlatt        4   -4    4     -4    4    4     -4   -4    4
          kptrlen      4.53534272E+01
P           mkmem          10
            natom           2
            nband           6
            ngfft          32      32      32
             nkpt         128
             nsym           1
            ntime          15
           ntypat           1
              occ      2.000000  2.000000  2.000000  2.000000  0.000000  0.000000
          optcell           2
            rprim      7.0710678120E-01  7.0710678117E-01  6.9650239756E-11
                       3.1527828871E-11  7.0710678117E-01  7.0710678120E-01
                       7.0710678119E-01 -2.1777182160E-11  7.0710678119E-01
           shiftk      5.00000000E-01  5.00000000E-01  5.00000000E-01
          spgroup           1
           strten     -3.9997170940E-11 -4.0062636802E-11 -4.0036609011E-11
                      -4.1307540147E-13  5.1441012505E-13 -4.0319852329E-13
           tolmxf      1.00000000E-08
           tolvrs      1.00000000E-10
            typat      1  1
              wtk        0.00781    0.00781    0.00781    0.00781    0.00781    0.00781
                         0.00781    0.00781    0.00781    0.00781    0.00781    0.00781
                         0.00781    0.00781    0.00781    0.00781    0.00781    0.00781
                         0.00781    0.00781    0.00781    0.00781    0.00781    0.00781
                         0.00781    0.00781    0.00781    0.00781    0.00781    0.00781
                         0.00781    0.00781    0.00781    0.00781    0.00781    0.00781
                         0.00781    0.00781    0.00781    0.00781    0.00781    0.00781
                         0.00781    0.00781    0.00781    0.00781    0.00781    0.00781
                         0.00781    0.00781
                       outvars : Printing only first  50 k-points.
           xangst      1.1638012194E-10  8.8647964307E-11 -3.2058171592E-12
                       1.3672062155E+00  1.3672062153E+00  1.3672062157E+00
            xcart      2.1992655779E-10  1.6752037478E-10 -6.0581164630E-12
                       2.5836453144E+00  2.5836453142E+00  2.5836453148E+00
             xred      3.8076535396E-11 -5.6571522372E-12  4.4847551496E-12
                       2.4999999996E-01  2.5000000001E-01  2.5000000000E-01
            znucl       14.00000

- Timing analysis has been suppressed with timopt=0

 Suggested references for the acknowledgment of ABINIT usage.

 Calculation completed.
.Delivered   0 WARNINGs and   9 COMMENTs to log file.