.Version 8.11.13 of ABINIT

 ABINIT is a project of the Universite Catholique de Louvain,
 Corning Inc. and other collaborators, see ~abinit/doc/developers/contributors.txt .
 acknowledgments of the ABINIT effort.

.Starting date : Fri 10 Jan 2020.
- ( at 12h10 )

 === Build Information ===
  Version       : 8.11.13
  Build target  : x86_64_linux_intel14.0
  Build date    : 20191206

 === Optimizations ===
  Debug level        : basic
  Optimization level : standard
  Architecture       : intel_xeon

 === Multicore ===
  Parallel build : yes
  Parallel I/O   : yes
  openMP support : no
  GPU support    : no

 === Connectors / Fallbacks ===
  Connectors on : yes
  Fallbacks on  : yes
  FFT flavor    : fftw3
  LINALG flavor : mkl
  TIMER flavor  : abinit
  TRIO flavor   : netcdf

 === Experimental features ===
  Exports             : no
  GW double-precision : yes

 Default optimizations:
   -O3

 Optimizations for 43_ptgroups:
   -O0

 CPP options activated during the build:

                  CC_INTEL                   CXX_GNU                  FC_INTEL

 HAVE_FC_ALLOCATABLE_DT...             HAVE_FC_ASYNC  HAVE_FC_COMMAND_ARGUMENT

        HAVE_FC_CONTIGUOUS           HAVE_FC_CPUTIME             HAVE_FC_ETIME

              HAVE_FC_EXIT             HAVE_FC_FLUSH             HAVE_FC_GAMMA

            HAVE_FC_GETENV            HAVE_FC_GETPID   HAVE_FC_IEEE_ARITHMETIC

   HAVE_FC_IEEE_EXCEPTIONS             HAVE_FC_IOMSG     HAVE_FC_ISO_C_BINDING

  HAVE_FC_ISO_FORTRAN_2008        HAVE_FC_LONG_LINES        HAVE_FC_MOVE_ALLOC

  HAVE_FC_ON_THE_FLY_SHAPE           HAVE_FC_PRIVATE         HAVE_FC_PROTECTED

           HAVE_FC_SHIFTLR         HAVE_FC_STREAM_IO            HAVE_FC_SYSTEM

                  HAVE_FFT            HAVE_FFT_FFTW3              HAVE_FFT_MPI

           HAVE_FFT_SERIAL               HAVE_GW_DPC        HAVE_LIBPAW_ABINIT

         HAVE_LINALG_AXPBY        HAVE_LINALG_GEMM3M  HAVE_LINALG_MKL_IMATCOPY

   HAVE_LINALG_MKL_OMATADD  HAVE_LINALG_MKL_OMATCOPY   HAVE_LINALG_MKL_THREADS

        HAVE_LINALG_SERIAL                  HAVE_MPI                 HAVE_MPI2

       HAVE_MPI_IALLREDUCE        HAVE_MPI_IALLTOALL       HAVE_MPI_IALLTOALLV

           HAVE_MPI_IBCAST         HAVE_MPI_IGATHERV        HAVE_MPI_INTEGER16

               HAVE_MPI_IO HAVE_MPI_TYPE_CREATE_S...               HAVE_NETCDF

           HAVE_NETCDF_MPI                HAVE_NUMPY             HAVE_OS_LINUX

         HAVE_TIMER_ABINIT                  HAVE_XML              USE_MACROAVE

- input  file    -> opt.in
- output file    -> opt.out
- root for input  files -> opti
- root for output files -> opto

-instrng: 56 lines of input have been read from file opt.in

 Please give name of formatted atomic psp file
 For atom type 1, psp file is /CECI/home/ucl/naps/jovbever/.PsP/Si/Si.psp8
  read the values zionpsp=  4.0 , pspcod=   8 , lmax=   2

 inpspheads: deduce mpsang = 3, n1xccc = 2501.

invars1m : enter jdtset= 0

 symlatt: the Bravais lattice is cF (face-centered cubic)
  xred   is defined in input file
 ingeo: takes atomic coordinates from input array xred

 symlatt: the Bravais lattice is cF (face-centered cubic)

 symlatt: the Bravais lattice is cF (face-centered cubic)

--- !COMMENT
src_file: m_symfind.F90
src_line: 931
message: |
    The Bravais lattice determined only from the primitive
    vectors, bravais(1)=  7, is more symmetric
    than the real one, iholohedry=  3, obtained by taking into
    account the atomic positions. Start deforming the primitive vector set.
...

 symlatt: the Bravais lattice is oI (body-centered orthorhombic)
 symspgr: spgroup=  74  Im m a   (=D2h^28)
 For input ecut=  8.820000E+00 best grid ngfft=      24      24      24
       max ecut=  1.105508E+01

 ==== FFT mesh ====
  FFT mesh divisions ........................    24   24   24
  Augmented FFT divisions ...................    25   25   24
  FFT algorithm .............................   312
  FFT cache size ............................    16
 getmpw: optimal value of mpw= 465

 Symmetries : space group Im m a (# 74); Bravais oI (body-center ortho.)

 getdim_nloc : deduce lmnmax  =  18, lnmax  =   6,
                      lmnmaxso=  18, lnmaxso=   6.
     intxc =       0    ionmov =       2      iscf =       7    lmnmax =       6
     lnmax =       6     mgfft =      24  mpssoang =       3    mqgrid =    3001
     natom =       2  nloc_mem =       1    nspden =       1   nspinor =       1
    nsppol =       1      nsym =       8    n1xccc =    2501    ntypat =       1
    occopt =       1   xclevel =       2
-    mband =           6        mffmem =           1         mkmem =           1
       mpw =         465          nfft =       13824          nkpt =           6
  Rough estimation (10% accuracy) of disk space for files :

 The job will continue.
------------- Echo of variables that govern the present computation ------------
-
- outvars: echo of selected default values
-   iomode0 =  0 , fftalg0 =312 , wfoptalg0 =  0
-
- outvars: echo of global parameters not present in the input file
-  max_nthreads =    0
-
 -outvars: echo values of preprocessed input variables --------

 These variables are accessible in NetCDF format (opto_OUT.nc)

            acell      1.1338356797E+01  1.1338356797E+01  1.1338356797E+01 Bohr
              amu      2.80855000E+01
          dilatmx      1.05000000E+00
             ecut      8.00000000E+00 Hartree
           ecutsm      5.00000000E-01 Hartree
-          fftalg         312
           ionmov           2
              ixc          11
              kpt     -2.50000000E-01  5.00000000E-01  0.00000000E+00
                       5.00000000E-01 -2.50000000E-01  0.00000000E+00
                      -2.50000000E-01  0.00000000E+00  0.00000000E+00
                       0.00000000E+00 -2.50000000E-01  0.00000000E+00
                       2.50000000E-01 -2.50000000E-01  2.50000000E-01
                       5.00000000E-01  0.00000000E+00  2.50000000E-01
         kptrlatt        2   -2    2     -2    2    2     -2   -2    2
          kptrlen      2.26767136E+01
P           mkmem           1
            natom           2
            nband           6
            ngfft          24      24      24
             nkpt           6
             nsym           8
            ntime          15
           ntypat           1
              occ      2.000000  2.000000  2.000000  2.000000  0.000000  0.000000
          optcell           2
            rprim      5.0000000000E-01  5.0000000000E-01  0.0000000000E+00
                       0.0000000000E+00  5.0000000000E-01  5.0000000000E-01
                       5.0000000000E-01  0.0000000000E+00  5.0000000000E-01
           shiftk      5.00000000E-01  5.00000000E-01  5.00000000E-01
          spgroup          74
           symrel      1  0  0   0  1  0   0  0  1      -1  0  0   0 -1  0   0  0 -1
                       0 -1  1   0 -1  0   1 -1  0       0  1 -1   0  1  0  -1  1  0
                       0  0  1   0  1  0   1  0  0       0  0 -1   0 -1  0  -1  0  0
                       1 -1  0   0 -1  0   0 -1  1      -1  1  0   0  1  0   0  1 -1
            tnons      0.0000000  0.0000000  0.0000000     0.2400000  0.2600000  0.2400000
                       0.0000000  0.0000000  0.0000000     0.2400000  0.2600000  0.2400000
                       0.0000000  0.0000000  0.0000000     0.2400000  0.2600000  0.2400000
                       0.0000000  0.0000000  0.0000000     0.2400000  0.2600000  0.2400000
           tolmxf      1.00000000E-08
           tolvrs      1.00000000E-10
            typat      1  1
              wtk        0.25000    0.25000    0.12500    0.12500    0.12500    0.12500
           xangst      0.0000000000E+00  0.0000000000E+00  0.0000000000E+00
                       1.4400000000E+00  1.5000000000E+00  1.5000000000E+00
            xcart      0.0000000000E+00  0.0000000000E+00  0.0000000000E+00
                       2.7212056314E+00  2.8345891993E+00  2.8345891993E+00
             xred      0.0000000000E+00  0.0000000000E+00  0.0000000000E+00
                       2.4000000000E-01  2.6000000000E-01  2.4000000000E-01
            znucl       14.00000

 chkinp: Checking input parameters for consistency.

 chkinp: WARNING -
   Chksymbreak=1 . Found potentially symmetry-breaking value of tnons,
   which is neither a rational fraction in 1/8th nor in 1/12th :
   for the symmetry number    2
   symrel is  -1  0  0  0 -1  0  0  0 -1
   tnons is     2.400000E-01    2.600000E-01    2.400000E-01
   Please, read the description of the input variable chksymbreak,
   then, if you feel confident, you might switch it to zero, or consult with the forum.

[...]

 chkinp: WARNING -
   Chksymbreak=1 . Found potentially symmetry-breaking value of tnons,
   which is neither a rational fraction in 1/8th nor in 1/12th :
   for the symmetry number    8
   symrel is  -1  1  0  0  1  0  0  1 -1
   tnons is     2.400000E-01    2.600000E-01    2.400000E-01
   Please, read the description of the input variable chksymbreak,
   then, if you feel confident, you might switch it to zero, or consult with the forum.

 chkinp: WARNING -
   Chksymbreak=1 . Found potentially symmetry-breaking value of tnons,
   which is neither a rational fraction in 1/8th nor in 1/12th :
   for the symmetry number    8
   symrel is  -1  1  0  0  1  0  0  1 -1
   tnons is     2.400000E-01    2.600000E-01    2.400000E-01
   Please, read the description of the input variable chksymbreak,
   then, if you feel confident, you might switch it to zero, or consult with the forum.
 DATA TYPE INFORMATION:
 REAL:      Data type name: REAL(DP)
            Kind value:      8
            Precision:      15
            Smallest nonnegligible quantity relative to 1:  0.22204460E-15
            Smallest positive number:                       0.22250739-307
            Largest representable number:                   0.17976931+309
 INTEGER:   Data type name: INTEGER(default)
            Kind value: 4
            Bit size:   32
            Largest representable number: 2147483647
 LOGICAL:   Data type name: LOGICAL
            Kind value: 4
 CHARACTER: Data type name: CHARACTER             Kind value: 1

  ==== OpenMP parallelism is OFF ====

  xmpi_tag_ub ................   1073741824
  xmpi_bsize_ch ..............            1
  xmpi_bsize_int .............            4
  xmpi_bsize_sp ..............            4
  xmpi_bsize_dp ..............            8
  xmpi_bsize_spc .............            8
  xmpi_bsize_dpc .............           16
  xmpio_bsize_frm ............            4
  xmpi_address_kind ..........            8
  xmpi_offset_kind ...........            8
  MPI_WTICK ..................   1.000000000000000E-006

== DATASET  1 ==================================================================
-   nproc =    6

 getdim_nloc : deduce lmnmax  =  18, lnmax  =   6,
                      lmnmaxso=  18, lnmaxso=   6.
 Exchange-correlation functional for the present dataset will be:
  GGA: Perdew-Burke-Ernzerhof functional - ixc=11
 Citation for XC functional:
  J.P.Perdew, K.Burke, M.Ernzerhof, PRL 77, 3865 (1996)

 Unit cell volume ucvol=  3.6441007E+02 bohr^3
[...]
  sigma(2 2)=  4.39039034E-04  sigma(3 1)=  0.00000000E+00
  sigma(3 3)=  4.39039034E-04  sigma(2 1)=  0.00000000E+00

   fftdatar_write: About to write data to: opto_TIM1_DEN with iomode: IO_MODE_FORTRAN
 Write iteration in HIST netCDF file

---OUTPUT-----------------------------------------------------------------------

 Cartesian coordinates (xcart) [bohr]
  0.00000000000000E+00  0.00000000000000E+00  0.00000000000000E+00
  2.72120563135533E+00  2.83458919932846E+00  2.83458919932846E+00
 Reduced coordinates (xred)
  0.00000000000000E+00  0.00000000000000E+00  0.00000000000000E+00
  2.40000000000000E-01  2.60000000000000E-01  2.40000000000000E-01
 Cartesian forces (fcart) [Ha/bohr]; max,rms= 9.01291E-03 5.20361E-03 (free atoms)
 -9.01291224781997E-03 -8.67361737988404E-19  8.67361737988404E-19
  9.01291224781997E-03  8.67361737988404E-19 -8.67361737988404E-19
 Reduced forces (fred)
  5.10958074243314E-02  0.00000000000000E+00  5.10958074243314E-02
 -5.10958074243314E-02  0.00000000000000E+00 -5.10958074243314E-02
 Scale of Primitive Cell (acell) [bohr]
  1.13383567973139E+01  1.13383567973139E+01  1.13383567973139E+01
 Real space primitive translations (rprimd) [bohr]
  5.66917839865693E+00  5.66917839865693E+00  0.00000000000000E+00
  0.00000000000000E+00  5.66917839865693E+00  5.66917839865693E+00
  5.66917839865693E+00  0.00000000000000E+00  5.66917839865693E+00
 Unitary Cell Volume (ucvol) [Bohr^3]=  3.64410067486860E+02
 Angles (23,13,12)= [degrees]
  6.00000000000000E+01  6.00000000000000E+01  6.00000000000000E+01
 Lengths [Bohr]
  8.01742897889321E+00  8.01742897889321E+00  8.01742897889321E+00
 Stress tensor in cartesian coordinates (strten) [Ha/bohr^3]
  4.40006394699116E-04  0.00000000000000E+00  0.00000000000000E+00
  0.00000000000000E+00  4.39039034300930E-04 -1.26158538193706E-06
  0.00000000000000E+00 -1.26158538193706E-06  4.39039034300930E-04
 Total energy (etotal) [Ha]= -8.42650323983829E+00
 fconv : at Broyd/MD step   1, gradients have not converged yet.
  max grad (force/stress) = 4.4001E-02 > tolmxf= 1.0000E-08 ha/bohr (free atoms)

Inverse hessian has been initialized.
 EXIT:           1           1
 mover: previous time step took  0.99 [s]

[...]

 Cartesian coordinates (xcart) [bohr]
 -8.89394007710288E-03  5.89111414815366E-19  1.73472347597681E-18
  2.69417913505980E+00  2.79746890476493E+00  2.79746890476493E+00
 Reduced coordinates (xred)
 -7.94904624094665E-04  7.94904624094665E-04 -7.94904624094665E-04
  2.40794904624095E-01  2.59205095375905E-01  2.40794904624095E-01
 Cartesian forces (fcart) [Ha/bohr]; max,rms= 8.09737E-03 4.67502E-03 (free atoms)
 -8.09737043850672E-03  0.00000000000000E+00  0.00000000000000E+00
  8.09737043850672E-03  0.00000000000000E+00  0.00000000000000E+00
 Reduced forces (fred)
  4.52994769933597E-02  0.00000000000000E+00  4.52994769933597E-02
 -4.52994769933597E-02  0.00000000000000E+00 -4.52994769933597E-02
 Scale of Primitive Cell (acell) [bohr]
  7.91171372694303E+00  7.91243693087116E+00  7.91171372694303E+00
 Real space primitive translations (rprimd) [bohr]
  5.59434415621395E+00  5.59450868037415E+00  4.29129155720100E-04
  0.00000000000000E+00  5.59493780952987E+00  5.59493780952987E+00
  5.59434415621396E+00  4.29129155720082E-04  5.59450868037415E+00
 Unitary Cell Volume (ucvol) [Bohr^3]=  3.50189465374008E+02
 Angles (23,13,12)= [degrees]
  5.99969761598195E+01  5.99958979014902E+01  5.99969761598195E+01
 Lengths [Bohr]
  7.91171372694303E+00  7.91243693087116E+00  7.91171372694303E+00
 Stress tensor in cartesian coordinates (strten) [Ha/bohr^3]
  4.22448137733005E-04  0.00000000000000E+00  0.00000000000000E+00
  0.00000000000000E+00  4.21481582359749E-04 -5.30044495146540E-06
  0.00000000000000E+00 -5.30044495146540E-06  4.21481582359749E-04
 Total energy (etotal) [Ha]= -8.43281100531511E+00

 Difference of energy with previous step (new-old):
           Absolute (Ha)=-6.30777E-03
           Relative     =-7.48283E-04
 fconv : at Broyd/MD step   2, gradients have not converged yet.
  max grad (force/stress) = 4.2245E-02 > tolmxf= 1.0000E-08 ha/bohr (free atoms)

 EXIT:           1           1
 mover: previous time step took  0.95 [s]

[...]

 Difference of energy with previous step (new-old):
           Absolute (Ha)= 2.30272E-02
           Relative     = 2.73440E-03
 fconv : at Broyd/MD step   3, gradients have not converged yet.
  max grad (force/stress) = 1.5341E-01 > tolmxf= 1.0000E-08 ha/bohr (free atoms)

[...]

--- Iteration: ( 9/15) Internal Cycle: (1/1)

[...]

--- Iteration: (10/15) Internal Cycle: (1/1)

[...]

 Difference of energy with previous step (new-old):
           Absolute (Ha)=-1.77371E-10
           Relative     =-2.09847E-11
 fconv : at Broyd/MD step  14, gradients have not converged yet.
  max grad (force/stress) = 6.1656E-06 > tolmxf= 1.0000E-08 ha/bohr (free atoms)

 EXIT:           1           1
 mover: previous time step took  0.64 [s]

--- Iteration: (15/15) Internal Cycle: (1/1)

 Cartesian coordinates (xcart) [bohr]
 -5.17330615063520E-02  1.17927897383684E-17 -1.04083408558608E-17
  2.53519257377743E+00  2.58694333262322E+00  2.58694333262322E+00
 Reduced coordinates (xred)
 -4.99945124942679E-03  4.99945124942680E-03 -4.99945124942680E-03
  2.44999451249427E-01  2.55000548750572E-01  2.44999451249427E-01
 Scale of Primitive Cell (acell) [bohr]
  7.31698189907942E+00  7.31698069217282E+00  7.31698189907942E+00
 Real space primitive translations (rprimd) [bohr]
  5.17387398389807E+00  5.17390105336308E+00 -1.43881166367154E-05
  0.00000000000000E+00  5.17388666524644E+00  5.17388666524644E+00
  5.17387398389807E+00 -1.43881166367734E-05  5.17390105336308E+00
 Unitary Cell Volume (ucvol) [Bohr^3]=  2.77001474118446E+02
 Angles (23,13,12)= [degrees]
  6.00000054563683E+01  6.00003570546617E+01  6.00000054563683E+01
 Lengths [Bohr]
  7.31698189907942E+00  7.31698069217282E+00  7.31698189907942E+00

---SELF-CONSISTENT-FIELD CONVERGENCE--------------------------------------------

 getcut: wavevector=  0.0000  0.0000  0.0000  ngfft=  24  24  24
         ecut(hartree)=      8.000   => boxcut(ratio)=   2.57614

 getcut : COMMENT -
  Note that boxcut > 2.2 ; recall that boxcut=Gcut(box)/Gcut(sphere) = 2
  is sufficient for exact treatment of convolution.
  Such a large boxcut is a waste : you could raise ecut
  e.g. ecut=   13.272975 Hartrees makes boxcut=2

[...]

 Simple mixing update:
  residual square of the potential:   2.583515189800535E-007
 scfcv_core: previous iteration took  0.10 [s]

[...]

 Pulay update with  1 previous iterations:
 mixing of old trial potential: alpha(m:m-4)=   1.01     -0.638E-02
 scfcv_core: previous iteration took  0.06 [s]

 ITER STEP NUMBER     3
 vtorho: nnsclo_now=1, note that nnsclo,dbl_nnsclo,istep=0 0 3
 Total charge density [el/Bohr^3]
      Maximum=    8.4297E-02  at reduced coord.    0.0833    0.7083    0.0833
      Minimum=    2.4659E-03  at reduced coord.    0.0000    0.0000    0.0000
   Integrated=    8.0000E+00
 ETOT  3  -8.4523835940246    -4.086E-14 6.850E-12 9.931E-12
 scprqt: <Vxc>= -3.3712263E-01 hartree

 At SCF step    3       vres2   =  9.93E-12 < tolvrs=  1.00E-10 =>converged.

[...]

   fftdatar_write: About to write data to: opto_TIM15_DEN with iomode: IO_MODE_FORTRAN
 Write iteration in HIST netCDF file

---OUTPUT-----------------------------------------------------------------------

 Cartesian coordinates (xcart) [bohr]
 -5.17330615063520E-02  1.17927897383684E-17 -1.04083408558608E-17
  2.53519257377743E+00  2.58694333262322E+00  2.58694333262322E+00
 Reduced coordinates (xred)
 -4.99945124942679E-03  4.99945124942680E-03 -4.99945124942680E-03
  2.44999451249427E-01  2.55000548750572E-01  2.44999451249427E-01
 Cartesian forces (fcart) [Ha/bohr]; max,rms= 2.47280E-06 1.42767E-06 (free atoms)
 -2.47279855901546E-06 -2.11758236813575E-22  2.11758236813575E-22
  2.47279855901546E-06  2.11758236813575E-22 -2.11758236813575E-22
 Reduced forces (fred)
  1.27939481319107E-05  0.00000000000000E+00  1.27939481319107E-05
 -1.27939481319107E-05  0.00000000000000E+00 -1.27939481319107E-05
 Scale of Primitive Cell (acell) [bohr]
  7.31698189907942E+00  7.31698069217282E+00  7.31698189907942E+00
 Real space primitive translations (rprimd) [bohr]
  5.17387398389807E+00  5.17390105336308E+00 -1.43881166367154E-05
  0.00000000000000E+00  5.17388666524644E+00  5.17388666524644E+00
  5.17387398389807E+00 -1.43881166367734E-05  5.17390105336308E+00
 Unitary Cell Volume (ucvol) [Bohr^3]=  2.77001474118446E+02
 Angles (23,13,12)= [degrees]
  6.00000054563683E+01  6.00003570546617E+01  6.00000054563683E+01
 Lengths [Bohr]
  7.31698189907942E+00  7.31698069217282E+00  7.31698189907942E+00
 Stress tensor in cartesian coordinates (strten) [Ha/bohr^3]
 -2.21736784315751E-08  0.00000000000000E+00  0.00000000000000E+00
  0.00000000000000E+00 -1.93940999110992E-10 -2.57992153851298E-08
  0.00000000000000E+00 -2.57992153851298E-08 -1.93940999761513E-10
 Total energy (etotal) [Ha]= -8.45238359402459E+00

 Difference of energy with previous step (new-old):
           Absolute (Ha)=-1.54554E-10
           Relative     =-1.82852E-11

 fconv : WARNING -
  ntime=   15 was not enough Broyd/MD steps to converge gradients:
  max grad (force/stress) = 2.5799E-06 > tolmxf= 1.0000E-08 ha/bohr (free atoms)

--- !RelaxConvergenceWarning
message: |

     fconv : WARNING -
      ntime=   15 was not enough Broyd/MD steps to converge gradients:
      max grad (force/stress) = 2.5799E-06 > tolmxf= 1.0000E-08 ha/bohr (free atoms)

...

 ----iterations are completed or convergence reached----

 === Gap info ===
  >>>> For spin  1
   Minimum direct gap =   2.7081 [eV], located at k-point      :  -0.2500  0.0000  0.0000
   Fundamental gap    =   2.3149 [eV], Top of valence bands at :  -0.2500  0.0000  0.0000
                                       Bottom of conduction at :   0.2500 -0.2500  0.2500
 Mean square residual over all n,k,spin=   19.065E-14; max=  68.501E-13
  -0.2500  0.5000  0.0000    1  4.98948E-16 kpt; spin; max resid(k); each band:
  1.72E-16 3.60E-16 1.68E-16 2.37E-16 1.84E-16 4.99E-16
   0.5000 -0.2500  0.0000    1  1.41766E-15 kpt; spin; max resid(k); each band:
  4.23E-16 1.16E-16 4.14E-16 1.98E-16 2.29E-16 1.42E-15
  -0.2500  0.0000  0.0000    1  6.85014E-12 kpt; spin; max resid(k); each band:
  4.31E-16 3.15E-16 5.25E-16 2.18E-16 8.88E-16 6.85E-12
   0.0000 -0.2500  0.0000    1  1.78024E-15 kpt; spin; max resid(k); each band:
  3.23E-16 3.52E-16 1.39E-17 8.93E-17 9.18E-17 1.78E-15
   0.2500 -0.2500  0.2500    1  4.11762E-16 kpt; spin; max resid(k); each band:
  2.80E-16 3.80E-16 4.12E-16 1.78E-18 3.51E-16 3.14E-16
   0.5000  0.0000  0.2500    1  5.54306E-16 kpt; spin; max resid(k); each band:
  5.54E-16 3.06E-16 1.37E-16 4.94E-16 1.79E-16 3.71E-16

   outwf: writing wavefunctions to: opto_WFK with iomode: IO_MODE_FORTRAN_MASTER
 prteigrs : about to open file opto_EIG
 Fermi (or HOMO) energy (hartree) =   0.12599   Average Vxc (hartree)=  -0.33712
 Eigenvalues (hartree) for nkpt=   6  k points:
 kpt#   1, nband=  6, wtk=  0.25000, kpt= -0.2500  0.5000  0.0000 (reduced coord)
  -0.18231   -0.07859    0.02617    0.07379    0.21107    0.31770
 kpt#   2, nband=  6, wtk=  0.25000, kpt=  0.5000 -0.2500  0.0000 (reduced coord)
  -0.18231   -0.07859    0.02617    0.07379    0.21107    0.31770
 kpt#   3, nband=  6, wtk=  0.12500, kpt= -0.2500  0.0000  0.0000 (reduced coord)
  -0.25120    0.01072    0.12599    0.12599    0.22551    0.28182
 kpt#   4, nband=  6, wtk=  0.12500, kpt=  0.0000 -0.2500  0.0000 (reduced coord)
  -0.25120    0.01072    0.12599    0.12599    0.22551    0.28182
 kpt#   5, nband=  6, wtk=  0.12500, kpt=  0.2500 -0.2500  0.2500 (reduced coord)
  -0.18231   -0.07859    0.02617    0.07378    0.21106    0.31770
 kpt#   6, nband=  6, wtk=  0.12500, kpt=  0.5000  0.0000  0.2500 (reduced coord)
  -0.18231   -0.07859    0.02617    0.07378    0.21106    0.31770
 Total charge density [el/Bohr^3]
      Maximum=    8.4297E-02  at reduced coord.    0.0833    0.7083    0.0833
 Next maximum=    8.4297E-02  at reduced coord.    0.0833    0.1250    0.0833
      Minimum=    2.4659E-03  at reduced coord.    0.0000    0.0000    0.0000
 Next minimum=    2.4660E-03  at reduced coord.    0.2500    0.2500    0.2500
   Integrated=    8.0000E+00

 Cartesian components of stress tensor (hartree/bohr^3)
  sigma(1 1)= -2.21736784E-08  sigma(3 2)= -2.57992154E-08
  sigma(2 2)= -1.93940999E-10  sigma(3 1)=  0.00000000E+00
  sigma(3 3)= -1.93941000E-10  sigma(2 1)=  0.00000000E+00

-Cartesian components of stress tensor (GPa)         [Pressure=  2.2126E-04 GPa]
- sigma(1 1)= -6.52372033E-04  sigma(3 2)= -7.59038995E-04
- sigma(2 2)= -5.70594023E-06  sigma(3 1)=  0.00000000E+00
- sigma(3 3)= -5.70594025E-06  sigma(2 1)=  0.00000000E+00

== END DATASET(S) ==============================================================

 -outvars: echo values of variables after computation  --------

 These variables are accessible in NetCDF format (opto_OUT.nc)

            acell      7.3169818991E+00  7.3169806922E+00  7.3169818991E+00 Bohr
              amu      2.80855000E+01
          dilatmx      1.05000000E+00
             ecut      8.00000000E+00 Hartree
           ecutsm      5.00000000E-01 Hartree
           etotal     -8.4523835940E+00
            fcart     -2.4727985590E-06 -2.1175823681E-22  2.1175823681E-22
                       2.4727985590E-06  2.1175823681E-22 -2.1175823681E-22
-          fftalg         312
           ionmov           2
              ixc          11
              kpt     -2.50000000E-01  5.00000000E-01  0.00000000E+00
                       5.00000000E-01 -2.50000000E-01  0.00000000E+00
                      -2.50000000E-01  0.00000000E+00  0.00000000E+00
                       0.00000000E+00 -2.50000000E-01  0.00000000E+00
                       2.50000000E-01 -2.50000000E-01  2.50000000E-01
                       5.00000000E-01  0.00000000E+00  2.50000000E-01
         kptrlatt        2   -2    2     -2    2    2     -2   -2    2
          kptrlen      2.26767136E+01
P           mkmem           1
            natom           2
            nband           6
            ngfft          24      24      24
             nkpt           6
             nsym           8
            ntime          15
           ntypat           1
              occ      2.000000  2.000000  2.000000  2.000000  0.000000  0.000000
          optcell           2
            rprim      7.0710493141E-01  7.0710863095E-01 -1.9664004688E-06
                       0.0000000000E+00  7.0710678119E-01  7.0710678119E-01
                       7.0710493141E-01 -1.9664004688E-06  7.0710863095E-01
           shiftk      5.00000000E-01  5.00000000E-01  5.00000000E-01
          spgroup          74
           strten     -2.2173678432E-08 -1.9394099911E-10 -1.9394099976E-10
                      -2.5799215385E-08  0.0000000000E+00  0.0000000000E+00
           symrel      1  0  0   0  1  0   0  0  1      -1  0  0   0 -1  0   0  0 -1
                       0 -1  1   0 -1  0   1 -1  0       0  1 -1   0  1  0  -1  1  0
                       0  0  1   0  1  0   1  0  0       0  0 -1   0 -1  0  -1  0  0
                       1 -1  0   0 -1  0   0 -1  1      -1  1  0   0  1  0   0  1 -1
            tnons      0.0000000  0.0000000  0.0000000     0.2400000  0.2600000  0.2400000
                       0.0000000  0.0000000  0.0000000     0.2400000  0.2600000  0.2400000
                       0.0000000  0.0000000  0.0000000     0.2400000  0.2600000  0.2400000
                       0.0000000  0.0000000  0.0000000     0.2400000  0.2600000  0.2400000
           tolmxf      1.00000000E-08
           tolvrs      1.00000000E-10
            typat      1  1
              wtk        0.25000    0.25000    0.12500    0.12500    0.12500    0.12500
           xangst     -2.7375957080E-02  6.2404755552E-18 -5.5078567602E-18
                       1.3415661294E+00  1.3689514515E+00  1.3689514515E+00
            xcart     -5.1733061506E-02  1.1792789738E-17 -1.0408340856E-17
                       2.5351925738E+00  2.5869433326E+00  2.5869433326E+00
             xred     -4.9994512494E-03  4.9994512494E-03 -4.9994512494E-03
                       2.4499945125E-01  2.5500054875E-01  2.4499945125E-01
            znucl       14.00000

 Suggested references for the acknowledgment of ABINIT usage.

 Calculation completed.
.Delivered  13 WARNINGs and  16 COMMENTs to log file.

--- !FinalSummary
program: abinit
version: 8.11.13
start_datetime: Fri Jan 10 12:10:25 2020
end_datetime: Fri Jan 10 12:10:37 2020
overall_cpu_time:          62.1
overall_wall_time:          70.2
exit_requested_by_user: no
timelimit: 0
pseudos:
    Si  : 45c393525680abc7b25445b8ec62bf83
usepaw: 0
mpi_procs: 6
omp_threads: 1
num_warnings: 13
num_comments: 16
...