.Version 8.11.13 of ABINIT

 ABINIT is a project of the Universite Catholique de Louvain,
 Corning Inc. and other collaborators, see ~abinit/doc/developers/contributors.txt .
 acknowledgments of the ABINIT effort.

.Starting date : Fri 10 Jan 2020.
- ( at 12h10 )

- input  file    -> opt.in
- output file    -> opt.out
- root for input  files -> opti
- root for output files -> opto

 Symmetries : space group Im m a (# 74); Bravais oI (body-center ortho.)
     intxc =       0    ionmov =       2      iscf =       7    lmnmax =       6
     lnmax =       6     mgfft =      24  mpssoang =       3    mqgrid =    3001
     natom =       2  nloc_mem =       1    nspden =       1   nspinor =       1
    nsppol =       1      nsym =       8    n1xccc =    2501    ntypat =       1
    occopt =       1   xclevel =       2
-    mband =           6        mffmem =           1         mkmem =           1
       mpw =         465          nfft =       13824          nkpt =           6
  Rough estimation (10% accuracy) of disk space for files :

------------- Echo of variables that govern the present computation ------------
-
- outvars: echo of selected default values
-   iomode0 =  0 , fftalg0 =312 , wfoptalg0 =  0
-
- outvars: echo of global parameters not present in the input file
-  max_nthreads =    0
-
 -outvars: echo values of preprocessed input variables --------
            acell      1.1338356797E+01  1.1338356797E+01  1.1338356797E+01 Bohr
              amu      2.80855000E+01
          dilatmx      1.05000000E+00
             ecut      8.00000000E+00 Hartree
           ecutsm      5.00000000E-01 Hartree
-          fftalg         312
           ionmov           2
              ixc          11
              kpt     -2.50000000E-01  5.00000000E-01  0.00000000E+00
                       5.00000000E-01 -2.50000000E-01  0.00000000E+00
                      -2.50000000E-01  0.00000000E+00  0.00000000E+00
                       0.00000000E+00 -2.50000000E-01  0.00000000E+00
                       2.50000000E-01 -2.50000000E-01  2.50000000E-01
                       5.00000000E-01  0.00000000E+00  2.50000000E-01
         kptrlatt        2   -2    2     -2    2    2     -2   -2    2
          kptrlen      2.26767136E+01
P           mkmem           1
            natom           2
            nband           6
            ngfft          24      24      24
             nkpt           6
             nsym           8
            ntime          15
           ntypat           1
              occ      2.000000  2.000000  2.000000  2.000000  0.000000  0.000000
          optcell           2
            rprim      5.0000000000E-01  5.0000000000E-01  0.0000000000E+00
                       0.0000000000E+00  5.0000000000E-01  5.0000000000E-01
                       5.0000000000E-01  0.0000000000E+00  5.0000000000E-01
           shiftk      5.00000000E-01  5.00000000E-01  5.00000000E-01
          spgroup          74
           symrel      1  0  0   0  1  0   0  0  1      -1  0  0   0 -1  0   0  0 -1
                       0 -1  1   0 -1  0   1 -1  0       0  1 -1   0  1  0  -1  1  0
                       0  0  1   0  1  0   1  0  0       0  0 -1   0 -1  0  -1  0  0
                       1 -1  0   0 -1  0   0 -1  1      -1  1  0   0  1  0   0  1 -1
            tnons      0.0000000  0.0000000  0.0000000     0.2400000  0.2600000  0.2400000
                       0.0000000  0.0000000  0.0000000     0.2400000  0.2600000  0.2400000
                       0.0000000  0.0000000  0.0000000     0.2400000  0.2600000  0.2400000
                       0.0000000  0.0000000  0.0000000     0.2400000  0.2600000  0.2400000
           tolmxf      1.00000000E-08
           tolvrs      1.00000000E-10
            typat      1  1
              wtk        0.25000    0.25000    0.12500    0.12500    0.12500    0.12500
           xangst      0.0000000000E+00  0.0000000000E+00  0.0000000000E+00
                       1.4400000000E+00  1.5000000000E+00  1.5000000000E+00
            xcart      0.0000000000E+00  0.0000000000E+00  0.0000000000E+00
                       2.7212056314E+00  2.8345891993E+00  2.8345891993E+00
             xred      0.0000000000E+00  0.0000000000E+00  0.0000000000E+00
                       2.4000000000E-01  2.6000000000E-01  2.4000000000E-01
            znucl       14.00000

 chkinp: Checking input parameters for consistency.

 chkinp: WARNING -
   Chksymbreak=1 . Found potentially symmetry-breaking value of tnons,
   which is neither a rational fraction in 1/8th nor in 1/12th :
   for the symmetry number    2
   symrel is  -1  0  0  0 -1  0  0  0 -1
   tnons is     2.400000E-01    2.600000E-01    2.400000E-01
   Please, read the description of the input variable chksymbreak,
   then, if you feel confident, you might switch it to zero, or consult with the forum.

[...]

 chkinp: WARNING -
   Chksymbreak=1 . Found potentially symmetry-breaking value of tnons,
   which is neither a rational fraction in 1/8th nor in 1/12th :
   for the symmetry number    8
   symrel is  -1  1  0  0  1  0  0  1 -1
   tnons is     2.400000E-01    2.600000E-01    2.400000E-01
   Please, read the description of the input variable chksymbreak,
   then, if you feel confident, you might switch it to zero, or consult with the forum.

== DATASET  1 ==================================================================
-   nproc =    6

 Real(R)+Recip(G) space primitive vectors, cartesian coordinates (Bohr,Bohr^-1):
 R(1)=  5.6691784  5.6691784  0.0000000  G(1)=  0.0881962  0.0881962 -0.0881962
 R(2)=  0.0000000  5.6691784  5.6691784  G(2)= -0.0881962  0.0881962  0.0881962
 R(3)=  5.6691784  0.0000000  5.6691784  G(3)=  0.0881962 -0.0881962  0.0881962
 Unit cell volume ucvol=  3.6441007E+02 bohr^3
 Angles (23,13,12)=  6.00000000E+01  6.00000000E+01  6.00000000E+01 degrees

 getcut: wavevector=  0.0000  0.0000  0.0000  ngfft=  24  24  24
         ecut(hartree)=      8.820   => boxcut(ratio)=   2.23912

 getcut : COMMENT -
  Note that boxcut > 2.2 ; recall that boxcut=Gcut(box)/Gcut(sphere) = 2
  is sufficient for exact treatment of convolution.
  Such a large boxcut is a waste : you could raise ecut
  e.g. ecut=   11.055083 Hartrees makes boxcut=2

--- Pseudopotential description ------------------------------------------------
- pspini: atom type   1  psp file is /CECI/home/ucl/naps/jovbever/.PsP/Si/Si.psp8
- pspatm: opening atomic psp file    /CECI/home/ucl/naps/jovbever/.PsP/Si/Si.psp8
- Si    ONCVPSP-3.2.3.1  r_core=   1.60303   1.72197   1.91712
- 14.00000   4.00000    170510                znucl, zion, pspdat
    8   11    2    4       600   0.00000      pspcod,pspxc,lmax,lloc,mmax,r2well
    5.99000000000000    4.00000000000000    0.00000000000000   rchrg,fchrg,qchrg
     nproj     2     2     2
     extension_switch     1
  pspatm : epsatm=    9.34321699
         --- l  ekb(1:nproj) -->
             0    5.168965    0.829883
             1    2.571282    0.578307
             2   -2.427311   -0.488097
 pspatm: atomic psp has been read  and splines computed

   1.49491472E+02                                ecore*ucvol(ha*bohr**3)

_setup2: Arith. and geom. avg. npw (full set) are     456.000     455.971

=== [ionmov= 2] Broyden-Fletcher-Goldfard-Shanno method (forces)

--- Iteration: ( 1/15) Internal Cycle: (1/1)

---SELF-CONSISTENT-FIELD CONVERGENCE--------------------------------------------

     iter   Etot(hartree)      deltaE(h)  residm     vres2
 ETOT  1  -8.4254651188441    -8.425E+00 3.509E-03 1.036E+00
 ETOT  2  -8.4264888313267    -1.024E-03 7.283E-04 4.296E-02
 ETOT  3  -8.4265029333518    -1.410E-05 1.078E-04 2.082E-03
 ETOT  4  -8.4265031955551    -2.622E-07 1.043E-04 2.013E-04
 ETOT  5  -8.4265032386844    -4.313E-08 1.592E-05 3.730E-06
 ETOT  6  -8.4265032398243    -1.140E-09 2.205E-05 6.812E-08
 ETOT  7  -8.4265032398382    -1.386E-11 3.045E-06 6.826E-10
 ETOT  8  -8.4265032398383    -9.237E-14 4.326E-06 3.191E-12

 At SCF step    8       vres2   =  3.19E-12 < tolvrs=  1.00E-10 =>converged.

 Cartesian components of stress tensor (hartree/bohr^3)
  sigma(1 1)=  4.40006395E-04  sigma(3 2)= -1.26158538E-06
  sigma(2 2)=  4.39039034E-04  sigma(3 1)=  0.00000000E+00
  sigma(3 3)=  4.39039034E-04  sigma(2 1)=  0.00000000E+00

 Integrated electronic density in atomic spheres:
 Atom  Sphere_radius  Integrated_density
    1        2.00000          1.56926466
    2        2.00000          1.59894187

---OUTPUT-----------------------------------------------------------------------

 Cartesian coordinates (xcart) [bohr]
  0.00000000000000E+00  0.00000000000000E+00  0.00000000000000E+00
  2.72120563135533E+00  2.83458919932846E+00  2.83458919932846E+00
 Reduced coordinates (xred)
  0.00000000000000E+00  0.00000000000000E+00  0.00000000000000E+00
  2.40000000000000E-01  2.60000000000000E-01  2.40000000000000E-01
 Cartesian forces (fcart) [Ha/bohr]; max,rms= 9.01291E-03 5.20361E-03 (free atoms)
 -9.01291224781997E-03 -8.67361737988404E-19  8.67361737988404E-19
  9.01291224781997E-03  8.67361737988404E-19 -8.67361737988404E-19
 Reduced forces (fred)
  5.10958074243314E-02  0.00000000000000E+00  5.10958074243314E-02
 -5.10958074243314E-02  0.00000000000000E+00 -5.10958074243314E-02
 Scale of Primitive Cell (acell) [bohr]
  1.13383567973139E+01  1.13383567973139E+01  1.13383567973139E+01
 Real space primitive translations (rprimd) [bohr]
  5.66917839865693E+00  5.66917839865693E+00  0.00000000000000E+00
  0.00000000000000E+00  5.66917839865693E+00  5.66917839865693E+00
  5.66917839865693E+00  0.00000000000000E+00  5.66917839865693E+00
 Unitary Cell Volume (ucvol) [Bohr^3]=  3.64410067486860E+02
 Angles (23,13,12)= [degrees]
  6.00000000000000E+01  6.00000000000000E+01  6.00000000000000E+01
 Lengths [Bohr]
  8.01742897889321E+00  8.01742897889321E+00  8.01742897889321E+00
 Stress tensor in cartesian coordinates (strten) [Ha/bohr^3]
  4.40006394699116E-04  0.00000000000000E+00  0.00000000000000E+00
  0.00000000000000E+00  4.39039034300930E-04 -1.26158538193706E-06
  0.00000000000000E+00 -1.26158538193706E-06  4.39039034300930E-04
 Total energy (etotal) [Ha]= -8.42650323983829E+00

[...]

 Difference of energy with previous step (new-old):
           Absolute (Ha)=-6.30777E-03
           Relative     =-7.48283E-04

[...]

 Difference of energy with previous step (new-old):
           Absolute (Ha)= 2.30272E-02
           Relative     = 2.73440E-03

[...]

--- Iteration: ( 9/15) Internal Cycle: (1/1)

[...]

--- Iteration: (10/15) Internal Cycle: (1/1)

[...]

--- Iteration: (15/15) Internal Cycle: (1/1)

---SELF-CONSISTENT-FIELD CONVERGENCE--------------------------------------------

     iter   Etot(hartree)      deltaE(h)  residm     vres2
 ETOT  1  -8.4523835940227    -8.452E+00 8.183E-12 2.634E-07
 ETOT  2  -8.4523835940246    -1.835E-12 8.007E-12 1.649E-10
 ETOT  3  -8.4523835940246    -4.086E-14 6.850E-12 9.931E-12

 At SCF step    3       vres2   =  9.93E-12 < tolvrs=  1.00E-10 =>converged.

[...]

 Integrated electronic density in atomic spheres:
 Atom  Sphere_radius  Integrated_density
    1        2.00000          1.74545657
    2        2.00000          1.74545669

---OUTPUT-----------------------------------------------------------------------

 Cartesian coordinates (xcart) [bohr]
 -5.17330615063520E-02  1.17927897383684E-17 -1.04083408558608E-17
  2.53519257377743E+00  2.58694333262322E+00  2.58694333262322E+00
 Reduced coordinates (xred)
 -4.99945124942679E-03  4.99945124942680E-03 -4.99945124942680E-03
  2.44999451249427E-01  2.55000548750572E-01  2.44999451249427E-01
 Cartesian forces (fcart) [Ha/bohr]; max,rms= 2.47280E-06 1.42767E-06 (free atoms)
 -2.47279855901546E-06 -2.11758236813575E-22  2.11758236813575E-22
  2.47279855901546E-06  2.11758236813575E-22 -2.11758236813575E-22
 Reduced forces (fred)
  1.27939481319107E-05  0.00000000000000E+00  1.27939481319107E-05
 -1.27939481319107E-05  0.00000000000000E+00 -1.27939481319107E-05
 Scale of Primitive Cell (acell) [bohr]
  7.31698189907942E+00  7.31698069217282E+00  7.31698189907942E+00
 Real space primitive translations (rprimd) [bohr]
  5.17387398389807E+00  5.17390105336308E+00 -1.43881166367154E-05
  0.00000000000000E+00  5.17388666524644E+00  5.17388666524644E+00
  5.17387398389807E+00 -1.43881166367734E-05  5.17390105336308E+00
 Unitary Cell Volume (ucvol) [Bohr^3]=  2.77001474118446E+02
 Angles (23,13,12)= [degrees]
  6.00000054563683E+01  6.00003570546617E+01  6.00000054563683E+01
 Lengths [Bohr]
  7.31698189907942E+00  7.31698069217282E+00  7.31698189907942E+00
 Stress tensor in cartesian coordinates (strten) [Ha/bohr^3]
 -2.21736784315751E-08  0.00000000000000E+00  0.00000000000000E+00
  0.00000000000000E+00 -1.93940999110992E-10 -2.57992153851298E-08
  0.00000000000000E+00 -2.57992153851298E-08 -1.93940999761513E-10
 Total energy (etotal) [Ha]= -8.45238359402459E+00

 Difference of energy with previous step (new-old):
           Absolute (Ha)=-1.54554E-10
           Relative     =-1.82852E-11

 fconv : WARNING -
  ntime=   15 was not enough Broyd/MD steps to converge gradients:
  max grad (force/stress) = 2.5799E-06 > tolmxf= 1.0000E-08 ha/bohr (free atoms)

 ----iterations are completed or convergence reached----

 Mean square residual over all n,k,spin=   19.065E-14; max=  68.501E-13
 reduced coordinates (array xred) for    2 atoms
      -0.004999451249      0.004999451249     -0.004999451249
       0.244999451249      0.255000548751      0.244999451249
 rms dE/dt=  1.0446E-05; max dE/dt=  1.2794E-05; dE/dt below (all hartree)
    1       0.000012793948      0.000000000000      0.000012793948
    2      -0.000012793948      0.000000000000     -0.000012793948

 cartesian coordinates (angstrom) at end:
    1     -0.02737595707975     0.00000000000000    -0.00000000000000
    2      1.34156612942964     1.36895145153807     1.36895145153807

 cartesian forces (hartree/bohr) at end:
    1     -0.00000247279856    -0.00000000000000     0.00000000000000
    2      0.00000247279856     0.00000000000000    -0.00000000000000
 frms,max,avg= 1.4276709E-06 2.4727986E-06   0.000E+00  0.000E+00  0.000E+00 h/b

 cartesian forces (eV/Angstrom) at end:
    1     -0.00012715640376    -0.00000000000000     0.00000000000000
    2      0.00012715640376     0.00000000000000    -0.00000000000000
 frms,max,avg= 7.3413784E-05 1.2715640E-04   0.000E+00  0.000E+00  0.000E+00 e/A
 length scales=  7.316981899079  7.316980692173  7.316981899079 bohr
              =  3.871980056658  3.871979417991  3.871980056658 angstroms
 prteigrs : about to open file opto_EIG
 Fermi (or HOMO) energy (hartree) =   0.12599   Average Vxc (hartree)=  -0.33712
 Eigenvalues (hartree) for nkpt=   6  k points:
 kpt#   1, nband=  6, wtk=  0.25000, kpt= -0.2500  0.5000  0.0000 (reduced coord)
  -0.18231   -0.07859    0.02617    0.07379    0.21107    0.31770
 prteigrs : prtvol=0 or 1, do not print more k-points.

 Components of total free energy (in Hartree) :

    Kinetic energy  =  3.04812000060656E+00
    Hartree energy  =  5.66782496917262E-01
    XC energy       = -3.08168799250330E+00
    Ewald energy    = -8.32920055175604E+00
    PspCore energy  =  5.39677531715879E-01
    Loc. psp. energy= -2.34090743348050E+00
    NL   psp  energy=  1.14483235447554E+00
    >>>>>>>>> Etotal= -8.45238359402459E+00

 Other information on the energy :
    Total energy(eV)= -2.30001054508970E+02 ; Band energy (Ha)=  -2.3567213600E-01

 rms coord change=  4.9995E-03   atom, delta coord (reduced):
     1       -0.004999451249      0.004999451249     -0.004999451249
     2        0.004999451249     -0.004999451249      0.004999451249

 Cartesian components of stress tensor (hartree/bohr^3)
  sigma(1 1)= -2.21736784E-08  sigma(3 2)= -2.57992154E-08
  sigma(2 2)= -1.93940999E-10  sigma(3 1)=  0.00000000E+00
  sigma(3 3)= -1.93941000E-10  sigma(2 1)=  0.00000000E+00

-Cartesian components of stress tensor (GPa)         [Pressure=  2.2126E-04 GPa]
- sigma(1 1)= -6.52372033E-04  sigma(3 2)= -7.59038995E-04
- sigma(2 2)= -5.70594023E-06  sigma(3 1)=  0.00000000E+00
- sigma(3 3)= -5.70594025E-06  sigma(2 1)=  0.00000000E+00

== END DATASET(S) ==============================================================

 -outvars: echo values of variables after computation  --------
            acell      7.3169818991E+00  7.3169806922E+00  7.3169818991E+00 Bohr
              amu      2.80855000E+01
          dilatmx      1.05000000E+00
             ecut      8.00000000E+00 Hartree
           ecutsm      5.00000000E-01 Hartree
           etotal     -8.4523835940E+00
            fcart     -2.4727985590E-06 -2.1175823681E-22  2.1175823681E-22
                       2.4727985590E-06  2.1175823681E-22 -2.1175823681E-22
-          fftalg         312
           ionmov           2
              ixc          11
              kpt     -2.50000000E-01  5.00000000E-01  0.00000000E+00
                       5.00000000E-01 -2.50000000E-01  0.00000000E+00
                      -2.50000000E-01  0.00000000E+00  0.00000000E+00
                       0.00000000E+00 -2.50000000E-01  0.00000000E+00
                       2.50000000E-01 -2.50000000E-01  2.50000000E-01
                       5.00000000E-01  0.00000000E+00  2.50000000E-01
         kptrlatt        2   -2    2     -2    2    2     -2   -2    2
          kptrlen      2.26767136E+01
P           mkmem           1
            natom           2
            nband           6
            ngfft          24      24      24
             nkpt           6
             nsym           8
            ntime          15
           ntypat           1
              occ      2.000000  2.000000  2.000000  2.000000  0.000000  0.000000
          optcell           2
            rprim      7.0710493141E-01  7.0710863095E-01 -1.9664004688E-06
                       0.0000000000E+00  7.0710678119E-01  7.0710678119E-01
                       7.0710493141E-01 -1.9664004688E-06  7.0710863095E-01
           shiftk      5.00000000E-01  5.00000000E-01  5.00000000E-01
          spgroup          74
           strten     -2.2173678432E-08 -1.9394099911E-10 -1.9394099976E-10
                      -2.5799215385E-08  0.0000000000E+00  0.0000000000E+00
           symrel      1  0  0   0  1  0   0  0  1      -1  0  0   0 -1  0   0  0 -1
                       0 -1  1   0 -1  0   1 -1  0       0  1 -1   0  1  0  -1  1  0
                       0  0  1   0  1  0   1  0  0       0  0 -1   0 -1  0  -1  0  0
                       1 -1  0   0 -1  0   0 -1  1      -1  1  0   0  1  0   0  1 -1
            tnons      0.0000000  0.0000000  0.0000000     0.2400000  0.2600000  0.2400000
                       0.0000000  0.0000000  0.0000000     0.2400000  0.2600000  0.2400000
                       0.0000000  0.0000000  0.0000000     0.2400000  0.2600000  0.2400000
                       0.0000000  0.0000000  0.0000000     0.2400000  0.2600000  0.2400000
           tolmxf      1.00000000E-08
           tolvrs      1.00000000E-10
            typat      1  1
              wtk        0.25000    0.25000    0.12500    0.12500    0.12500    0.12500
           xangst     -2.7375957080E-02  6.2404755552E-18 -5.5078567602E-18
                       1.3415661294E+00  1.3689514515E+00  1.3689514515E+00
            xcart     -5.1733061506E-02  1.1792789738E-17 -1.0408340856E-17
                       2.5351925738E+00  2.5869433326E+00  2.5869433326E+00
             xred     -4.9994512494E-03  4.9994512494E-03 -4.9994512494E-03
                       2.4499945125E-01  2.5500054875E-01  2.4499945125E-01
            znucl       14.00000

- Timing analysis has been suppressed with timopt=0

 Suggested references for the acknowledgment of ABINIT usage.

 Calculation completed.
.Delivered  13 WARNINGs and  16 COMMENTs to log file.

External calculated distance:
distance  4.480707070850597